    1C
    1UUSER                                                              
    1UDATE              25.may.2021                                     
    1UTIME              18:57:33                                        
    1UHOST                                                              
    1UPGM               CalculiX                                        
    1UVERSION           Version 2.17                             
    1UCOMPILETIME       Thu Jul 23 21:43:50 CEST 2020                    
    1UDIR                                                               
    1UDBN                                                               
    1UMAT    1SOLIDMATERIAL                                             
    2C                          1242                                     1
 -1         1 2.30000E+01 2.00000E+01 5.00000E+00
 -1         2 2.30000E+01 2.00000E+01 0.00000E+00
 -1         3 3.00000E+01 2.00000E+01 5.00000E+00
 -1         4 3.00000E+01 2.00000E+01 0.00000E+00
 -1         5 3.00000E+01 0.00000E+00 5.00000E+00
 -1         6 3.00000E+01 0.00000E+00 0.00000E+00
 -1         7 1.00000E+01 0.00000E+00 5.00000E+00
 -1         8 1.00000E+01 0.00000E+00 0.00000E+00
 -1         9 0.00000E+00 0.00000E+00 5.00000E+00
 -1        10 0.00000E+00 0.00000E+00 0.00000E+00
 -1        11 0.00000E+00 1.00000E+01 5.00000E+00
 -1        12 0.00000E+00 1.00000E+01 0.00000E+00
 -1        13 0.00000E+00 3.00000E+01 5.00000E+00
 -1        14 0.00000E+00 3.00000E+01 0.00000E+00
 -1        15 2.00000E+01 3.00000E+01 5.00000E+00
 -1        16 2.00000E+01 3.00000E+01 0.00000E+00
 -1        17 2.00000E+01 2.30000E+01 5.00000E+00
 -1        18 2.00000E+01 2.30000E+01 0.00000E+00
 -1        19 2.00000E+01 2.64160E+01 5.00000E+00
 -1        20 1.74400E+01 3.00000E+01 5.00000E+00
 -1        21 1.43600E+01 3.00000E+01 5.00000E+00
 -1        22 1.08000E+01 3.00000E+01 5.00000E+00
 -1        23 6.50000E+00 3.00000E+01 5.00000E+00
 -1        24 2.70000E+00 3.00000E+01 5.00000E+00
 -1        25 0.00000E+00 2.74800E+01 5.00000E+00
 -1        26 0.00000E+00 2.44400E+01 5.00000E+00
 -1        27 0.00000E+00 2.09400E+01 5.00000E+00
 -1        28 0.00000E+00 1.67000E+01 5.00000E+00
 -1        29 0.00000E+00 1.27600E+01 5.00000E+00
 -1        30 0.00000E+00 7.10000E+00 5.00000E+00
 -1        31 0.00000E+00 3.13000E+00 5.00000E+00
 -1        32 3.11000E+00 0.00000E+00 5.00000E+00
 -1        33 7.09000E+00 0.00000E+00 5.00000E+00
 -1        34 1.28000E+01 0.00000E+00 5.00000E+00
 -1        35 1.64000E+01 0.00000E+00 5.00000E+00
 -1        36 2.07600E+01 0.00000E+00 5.00000E+00
 -1        37 2.43400E+01 0.00000E+00 5.00000E+00
 -1        38 2.74400E+01 0.00000E+00 5.00000E+00
 -1        39 3.00000E+01 2.76000E+00 5.00000E+00
 -1        40 3.00000E+01 6.64000E+00 5.00000E+00
 -1        41 3.00000E+01 1.09000E+01 5.00000E+00
 -1        42 3.00000E+01 1.44200E+01 5.00000E+00
 -1        43 3.00000E+01 1.74800E+01 5.00000E+00
 -1        44 2.77600E+01 2.00000E+01 5.00000E+00
 -1        45 2.52260E+01 2.00000E+01 5.00000E+00
 -1        46 2.08787E+01 2.08787E+01 5.00000E+00
 -1        47 2.00000E+01 2.52610E+01 0.00000E+00
 -1        48 2.00000E+01 2.77810E+01 0.00000E+00
 -1        49 1.71200E+01 3.00000E+01 0.00000E+00
 -1        50 1.35800E+01 3.00000E+01 0.00000E+00
 -1        51 9.40000E+00 3.00000E+01 0.00000E+00
 -1        52 3.94000E+00 3.00000E+01 0.00000E+00
 -1        53 0.00000E+00 2.75600E+01 0.00000E+00
 -1        54 0.00000E+00 2.43600E+01 0.00000E+00
 -1        55 0.00000E+00 2.02600E+01 0.00000E+00
 -1        56 0.00000E+00 1.61600E+01 0.00000E+00
 -1        57 0.00000E+00 1.27400E+01 0.00000E+00
 -1        58 0.00000E+00 7.03000E+00 0.00000E+00
 -1        59 0.00000E+00 3.33000E+00 0.00000E+00
 -1        60 3.30000E+00 0.00000E+00 0.00000E+00
 -1        61 7.02000E+00 0.00000E+00 0.00000E+00
 -1        62 1.26200E+01 0.00000E+00 0.00000E+00
 -1        63 1.57800E+01 0.00000E+00 0.00000E+00
 -1        64 2.05600E+01 0.00000E+00 0.00000E+00
 -1        65 2.45600E+01 0.00000E+00 0.00000E+00
 -1        66 2.76000E+01 0.00000E+00 0.00000E+00
 -1        67 3.00000E+01 3.76000E+00 0.00000E+00
 -1        68 3.00000E+01 9.04000E+00 0.00000E+00
 -1        69 3.00000E+01 1.36400E+01 0.00000E+00
 -1        70 3.00000E+01 1.73400E+01 0.00000E+00
 -1        71 2.64230E+01 2.00000E+01 0.00000E+00
 -1        72 2.08787E+01 2.08787E+01 0.00000E+00
 -1        73 2.00000E+01 2.30000E+01 2.52000E+00
 -1        74 2.30000E+01 2.00000E+01 2.52000E+00
 -1        75 3.00000E+01 2.00000E+01 2.48500E+00
 -1        76 3.00000E+01 0.00000E+00 2.40500E+00
 -1        77 1.00000E+01 0.00000E+00 2.40000E+00
 -1        78 0.00000E+00 0.00000E+00 2.48500E+00
 -1        79 0.00000E+00 1.00000E+01 2.40000E+00
 -1        80 0.00000E+00 3.00000E+01 2.40500E+00
 -1        81 2.00000E+01 3.00000E+01 2.40000E+00
 -1        82 1.76742E+01 2.47080E+01 5.00000E+00
 -1        83 1.75571E+01 2.73540E+01 5.00000E+00
 -1        84 1.44771E+01 2.73540E+01 5.00000E+00
 -1        85 1.09171E+01 2.73540E+01 5.00000E+00
 -1        86 6.61710E+00 2.73540E+01 5.00000E+00
 -1        87 2.73566E+00 2.59600E+01 5.00000E+00
 -1        88 2.73566E+00 2.24600E+01 5.00000E+00
 -1        89 2.73566E+00 1.82200E+01 5.00000E+00
 -1        90 2.73566E+00 1.42800E+01 5.00000E+00
 -1        91 2.73566E+00 1.15200E+01 5.00000E+00
 -1        92 2.73566E+00 8.62000E+00 5.00000E+00
 -1        93 2.73566E+00 4.65000E+00 5.00000E+00
 -1        94 2.92283E+00 2.32500E+00 5.00000E+00
 -1        95 6.90283E+00 2.32500E+00 5.00000E+00
 -1        96 9.81283E+00 2.32500E+00 5.00000E+00
 -1        97 1.26128E+01 2.32500E+00 5.00000E+00
 -1        98 1.62128E+01 2.32500E+00 5.00000E+00
 -1        99 2.25500E+01 3.02099E+00 5.00000E+00
 -1       100 2.56500E+01 3.02099E+00 5.00000E+00
 -1       101 2.64084E+01 8.77000E+00 5.00000E+00
 -1       102 2.64084E+01 1.22900E+01 5.00000E+00
 -1       103 2.64084E+01 1.53500E+01 5.00000E+00
 -1       104 2.64930E+01 1.73889E+01 5.00000E+00
 -1       105 2.42670E+01 1.73889E+01 5.00000E+00
 -1       106 1.82906E+01 2.10493E+01 5.00000E+00
 -1       107 2.12714E+01 1.88269E+01 5.00000E+00
 -1       108 1.86833E+01 1.89975E+01 5.00000E+00
 -1       109 1.85800E+01 4.16230E+00 5.00000E+00
 -1       110 1.45942E+01 2.47080E+01 5.00000E+00
 -1       111 7.46862E+00 1.62500E+01 5.00000E+00
 -1       112 7.46862E+00 2.04900E+01 5.00000E+00
 -1       113 2.80059E+01 5.90606E+00 5.00000E+00
 -1       114 7.04286E+00 2.39220E+01 5.00000E+00
 -1       115 7.46862E+00 1.34900E+01 5.00000E+00
 -1       116 6.32730E+00 6.63500E+00 5.00000E+00
 -1       117 1.12128E+01 5.34599E+00 5.00000E+00
 -1       118 1.48128E+01 5.34599E+00 5.00000E+00
 -1       119 2.23706E+01 1.05300E+01 5.00000E+00
 -1       120 2.17627E+01 1.60112E+01 5.00000E+00
 -1       121 1.52106E+01 2.10493E+01 5.00000E+00
 -1       122 2.40855E+01 1.41506E+01 5.00000E+00
 -1       123 6.32730E+00 9.53500E+00 5.00000E+00
 -1       124 2.44880E+01 6.37429E+00 5.00000E+00
 -1       125 1.56033E+01 1.89975E+01 5.00000E+00
 -1       126 1.11267E+01 2.24856E+01 5.00000E+00
 -1       127 1.91746E+01 1.61818E+01 5.00000E+00
 -1       128 2.00478E+01 1.23906E+01 5.00000E+00
 -1       129 1.30128E+01 8.93763E+00 5.00000E+00
 -1       130 1.65154E+01 9.70342E+00 5.00000E+00
 -1       131 9.34072E+00 9.41799E+00 5.00000E+00
 -1       132 1.11267E+01 1.82456E+01 5.00000E+00
 -1       133 1.60946E+01 1.61818E+01 5.00000E+00
 -1       134 1.11267E+01 1.54856E+01 5.00000E+00
 -1       135 1.37532E+01 1.39443E+01 5.00000E+00
 -1       136 1.48024E+01 1.72677E+01 5.00000E+00
 -1       137 1.76742E+01 2.41305E+01 0.00000E+00
 -1       138 1.76742E+01 2.66505E+01 0.00000E+00
 -1       139 1.53500E+01 2.72643E+01 0.00000E+00
 -1       140 1.11700E+01 2.72643E+01 0.00000E+00
 -1       141 5.71000E+00 2.72643E+01 0.00000E+00
 -1       142 2.85500E+00 2.74122E+01 0.00000E+00
 -1       143 3.59164E+00 2.23100E+01 0.00000E+00
 -1       144 3.59164E+00 1.82100E+01 0.00000E+00
 -1       145 3.59164E+00 1.47900E+01 0.00000E+00
 -1       146 3.59164E+00 1.20500E+01 0.00000E+00
 -1       147 3.59164E+00 9.08000E+00 0.00000E+00
 -1       148 3.59164E+00 5.38000E+00 0.00000E+00
 -1       149 5.16000E+00 3.02099E+00 0.00000E+00
 -1       150 8.14000E+00 3.02099E+00 0.00000E+00
 -1       151 1.07600E+01 3.02099E+00 0.00000E+00
 -1       152 1.39200E+01 3.02099E+00 0.00000E+00
 -1       153 1.87000E+01 3.02099E+00 0.00000E+00
 -1       154 2.27000E+01 3.02099E+00 0.00000E+00
 -1       155 2.57400E+01 3.02099E+00 0.00000E+00
 -1       156 2.78700E+01 3.39049E+00 0.00000E+00
 -1       157 2.58377E+01 1.13400E+01 0.00000E+00
 -1       158 2.58377E+01 1.50400E+01 0.00000E+00
 -1       159 2.47115E+01 1.76742E+01 0.00000E+00
 -1       160 1.82906E+01 2.10493E+01 0.00000E+00
 -1       161 2.12714E+01 1.88269E+01 0.00000E+00
 -1       162 3.59314E+00 3.59063E+00 0.00000E+00
 -1       163 2.29829E+01 1.65011E+01 0.00000E+00
 -1       164 2.52670E+01 6.40000E+00 0.00000E+00
 -1       165 1.86833E+01 1.89975E+01 0.00000E+00
 -1       166 1.53500E+01 2.47443E+01 0.00000E+00
 -1       167 8.44000E+00 2.31020E+01 0.00000E+00
 -1       168 7.75394E+00 1.65000E+01 0.00000E+00
 -1       169 7.75394E+00 1.37600E+01 0.00000E+00
 -1       170 7.75394E+00 1.07900E+01 0.00000E+00
 -1       171 7.75394E+00 7.09000E+00 0.00000E+00
 -1       172 9.45000E+00 5.75664E+00 0.00000E+00
 -1       173 1.26100E+01 5.75664E+00 0.00000E+00
 -1       174 1.73900E+01 5.75664E+00 0.00000E+00
 -1       175 2.13900E+01 5.75664E+00 0.00000E+00
 -1       176 1.59664E+01 2.16631E+01 0.00000E+00
 -1       177 2.02539E+01 1.62855E+01 0.00000E+00
 -1       178 8.32460E+00 2.02600E+01 0.00000E+00
 -1       179 1.63591E+01 1.96114E+01 0.00000E+00
 -1       180 2.17999E+01 1.31900E+01 0.00000E+00
 -1       181 2.09744E+01 9.39884E+00 0.00000E+00
 -1       182 1.24869E+01 1.51300E+01 0.00000E+00
 -1       183 1.69707E+01 1.61949E+01 0.00000E+00
 -1       184 1.24869E+01 1.21600E+01 0.00000E+00
 -1       185 1.50000E+01 1.04896E+01 0.00000E+00
 -1       186 1.94284E+01 1.24943E+01 0.00000E+00
 -1       187 1.01820E+01 8.27332E+00 0.00000E+00
 -1       188 1.28286E+01 1.99949E+01 0.00000E+00
 -1       189 2.64930E+01 2.00000E+01 2.38888E+00
 -1       190 3.00000E+01 1.58800E+01 2.50000E+00
 -1       191 1.27100E+01 0.00000E+00 2.50000E+00
 -1       192 2.75200E+01 0.00000E+00 2.50000E+00
 -1       193 5.16000E+00 0.00000E+00 3.02099E+00
 -1       194 0.00000E+00 5.18000E+00 3.02099E+00
 -1       195 0.00000E+00 2.75200E+01 2.50000E+00
 -1       196 1.57400E+01 3.00000E+01 2.50000E+00
 -1       197 2.00000E+01 2.70985E+01 2.50000E+00
 -1       198 2.00000E+01 2.50492E+01 2.51000E+00
 -1       199 2.28145E+01 1.78014E+01 3.51394E+00
 -1       200 1.83877E+01 2.35373E+01 3.56011E+00
 -1       201 1.62693E+01 2.30739E+01 3.12549E+00
 -1       202 1.78415E+01 2.26824E+01 1.79579E+00
 -1       203 1.76894E+01 2.49994E+01 2.03258E+00
 -1       204 2.05887E+01 1.84023E+01 2.48136E+00
 -1       205 1.66647E+01 2.12423E+01 2.60813E+00
 -1       206 1.45522E+01 2.04631E+01 2.57260E+00
 -1       207 1.81348E+01 1.97918E+01 2.47092E+00
 -1       208 1.66885E+01 1.80460E+01 2.39325E+00
 -1       209 2.46894E+01 1.83779E+01 3.48989E+00
 -1       210 2.43684E+01 1.58750E+01 2.68200E+00
 -1       211 2.15873E+01 1.54991E+01 2.48324E+00
 -1       212 2.37531E+01 1.81289E+01 1.69633E+00
 -1       213 2.71418E+01 1.75194E+01 2.35146E+00
 -1       214 1.78746E+01 4.80197E+00 2.04833E+00
 -1       215 2.20654E+01 6.63526E+00 2.79367E+00
 -1       216 1.76202E+01 7.34741E+00 2.32003E+00
 -1       217 1.98132E+01 6.67377E+00 1.53062E+00
 -1       218 2.01012E+01 8.40823E+00 2.73126E+00
 -1       219 1.93841E+01 6.15463E+00 2.97515E+00
 -1       220 1.92996E+01 7.50959E+00 3.94932E+00
 -1       221 2.06188E+01 4.68058E+00 2.17240E+00
 -1       222 2.00000E+01 2.47080E+01 5.00000E+00
 -1       223 2.00000E+01 2.82080E+01 5.00000E+00
 -1       224 1.87200E+01 3.00000E+01 5.00000E+00
 -1       225 1.59000E+01 3.00000E+01 5.00000E+00
 -1       226 1.25800E+01 3.00000E+01 5.00000E+00
 -1       227 8.65000E+00 3.00000E+01 5.00000E+00
 -1       228 4.60000E+00 3.00000E+01 5.00000E+00
 -1       229 1.35000E+00 3.00000E+01 5.00000E+00
 -1       230 0.00000E+00 2.87400E+01 5.00000E+00
 -1       231 0.00000E+00 2.59600E+01 5.00000E+00
 -1       232 0.00000E+00 2.26900E+01 5.00000E+00
 -1       233 0.00000E+00 1.88200E+01 5.00000E+00
 -1       234 0.00000E+00 1.47300E+01 5.00000E+00
 -1       235 0.00000E+00 1.13800E+01 5.00000E+00
 -1       236 0.00000E+00 8.55000E+00 5.00000E+00
 -1       237 0.00000E+00 5.11500E+00 5.00000E+00
 -1       238 0.00000E+00 1.56500E+00 5.00000E+00
 -1       239 1.55500E+00 0.00000E+00 5.00000E+00
 -1       240 5.10000E+00 0.00000E+00 5.00000E+00
 -1       241 8.54500E+00 0.00000E+00 5.00000E+00
 -1       242 1.14000E+01 0.00000E+00 5.00000E+00
 -1       243 1.46000E+01 0.00000E+00 5.00000E+00
 -1       244 1.85800E+01 0.00000E+00 5.00000E+00
 -1       245 2.25500E+01 0.00000E+00 5.00000E+00
 -1       246 2.58900E+01 0.00000E+00 5.00000E+00
 -1       247 2.87200E+01 0.00000E+00 5.00000E+00
 -1       248 3.00000E+01 1.38000E+00 5.00000E+00
 -1       249 3.00000E+01 4.70000E+00 5.00000E+00
 -1       250 3.00000E+01 8.77000E+00 5.00000E+00
 -1       251 3.00000E+01 1.26600E+01 5.00000E+00
 -1       252 3.00000E+01 1.59500E+01 5.00000E+00
 -1       253 3.00000E+01 1.87400E+01 5.00000E+00
 -1       254 2.88800E+01 2.00000E+01 5.00000E+00
 -1       255 2.64930E+01 2.00000E+01 5.00000E+00
 -1       256 2.41130E+01 2.00000E+01 5.00000E+00
 -1       257 2.02284E+01 2.18519E+01 5.00000E+00
 -1       258 2.18519E+01 2.02284E+01 5.00000E+00
 -1       259 2.00000E+01 2.41305E+01 0.00000E+00
 -1       260 2.00000E+01 2.65210E+01 0.00000E+00
 -1       261 2.00000E+01 2.88905E+01 0.00000E+00
 -1       262 1.85600E+01 3.00000E+01 0.00000E+00
 -1       263 1.53500E+01 3.00000E+01 0.00000E+00
 -1       264 1.14900E+01 3.00000E+01 0.00000E+00
 -1       265 6.67000E+00 3.00000E+01 0.00000E+00
 -1       266 1.97000E+00 3.00000E+01 0.00000E+00
 -1       267 0.00000E+00 2.87800E+01 0.00000E+00
 -1       268 0.00000E+00 2.59600E+01 0.00000E+00
 -1       269 0.00000E+00 2.23100E+01 0.00000E+00
 -1       270 0.00000E+00 1.82100E+01 0.00000E+00
 -1       271 0.00000E+00 1.44500E+01 0.00000E+00
 -1       272 0.00000E+00 1.13700E+01 0.00000E+00
 -1       273 0.00000E+00 8.51500E+00 0.00000E+00
 -1       274 0.00000E+00 5.18000E+00 0.00000E+00
 -1       275 0.00000E+00 1.66500E+00 0.00000E+00
 -1       276 1.65000E+00 0.00000E+00 0.00000E+00
 -1       277 5.16000E+00 0.00000E+00 0.00000E+00
 -1       278 8.51000E+00 0.00000E+00 0.00000E+00
 -1       279 1.13100E+01 0.00000E+00 0.00000E+00
 -1       280 1.42000E+01 0.00000E+00 0.00000E+00
 -1       281 1.81700E+01 0.00000E+00 0.00000E+00
 -1       282 2.25600E+01 0.00000E+00 0.00000E+00
 -1       283 2.60800E+01 0.00000E+00 0.00000E+00
 -1       284 2.88000E+01 0.00000E+00 0.00000E+00
 -1       285 3.00000E+01 1.88000E+00 0.00000E+00
 -1       286 3.00000E+01 6.40000E+00 0.00000E+00
 -1       287 3.00000E+01 1.13400E+01 0.00000E+00
 -1       288 3.00000E+01 1.54900E+01 0.00000E+00
 -1       289 3.00000E+01 1.86700E+01 0.00000E+00
 -1       290 2.82115E+01 2.00000E+01 0.00000E+00
 -1       291 2.47115E+01 2.00000E+01 0.00000E+00
 -1       292 2.02284E+01 2.18519E+01 0.00000E+00
 -1       293 2.18519E+01 2.02284E+01 0.00000E+00
 -1       294 2.00000E+01 2.30000E+01 1.26000E+00
 -1       295 2.00000E+01 2.30000E+01 3.76000E+00
 -1       296 2.30000E+01 2.00000E+01 1.26000E+00
 -1       297 2.30000E+01 2.00000E+01 3.76000E+00
 -1       298 3.00000E+01 2.00000E+01 1.24250E+00
 -1       299 3.00000E+01 2.00000E+01 3.74250E+00
 -1       300 3.00000E+01 0.00000E+00 1.20250E+00
 -1       301 3.00000E+01 0.00000E+00 3.70250E+00
 -1       302 1.00000E+01 0.00000E+00 1.20000E+00
 -1       303 1.00000E+01 0.00000E+00 3.70000E+00
 -1       304 0.00000E+00 0.00000E+00 1.24250E+00
 -1       305 0.00000E+00 0.00000E+00 3.74250E+00
 -1       306 0.00000E+00 1.00000E+01 1.20000E+00
 -1       307 0.00000E+00 1.00000E+01 3.70000E+00
 -1       308 0.00000E+00 3.00000E+01 1.20250E+00
 -1       309 0.00000E+00 3.00000E+01 3.70250E+00
 -1       310 2.00000E+01 3.00000E+01 1.20000E+00
 -1       311 2.00000E+01 3.00000E+01 3.70000E+00
 -1       312 1.88371E+01 2.55620E+01 5.00000E+00
 -1       313 1.88371E+01 2.38540E+01 5.00000E+00
 -1       314 1.87786E+01 2.86770E+01 5.00000E+00
 -1       315 1.87786E+01 2.68850E+01 5.00000E+00
 -1       316 1.76157E+01 2.60310E+01 5.00000E+00
 -1       317 1.74986E+01 2.86770E+01 5.00000E+00
 -1       318 1.44186E+01 2.86770E+01 5.00000E+00
 -1       319 1.59586E+01 2.86770E+01 5.00000E+00
 -1       320 1.60171E+01 2.73540E+01 5.00000E+00
 -1       321 1.08586E+01 2.86770E+01 5.00000E+00
 -1       322 1.26386E+01 2.86770E+01 5.00000E+00
 -1       323 1.26971E+01 2.73540E+01 5.00000E+00
 -1       324 6.55855E+00 2.86770E+01 5.00000E+00
 -1       325 8.70855E+00 2.86770E+01 5.00000E+00
 -1       326 8.76710E+00 2.73540E+01 5.00000E+00
 -1       327 4.65855E+00 2.86770E+01 5.00000E+00
 -1       328 1.35000E+00 2.87400E+01 5.00000E+00
 -1       329 1.36783E+00 2.52000E+01 5.00000E+00
 -1       330 1.36783E+00 2.67200E+01 5.00000E+00
 -1       331 1.36783E+00 2.17000E+01 5.00000E+00
 -1       332 1.36783E+00 2.34500E+01 5.00000E+00
 -1       333 2.73566E+00 2.42100E+01 5.00000E+00
 -1       334 1.36783E+00 1.74600E+01 5.00000E+00
 -1       335 1.36783E+00 1.95800E+01 5.00000E+00
 -1       336 2.73566E+00 2.03400E+01 5.00000E+00
 -1       337 1.36783E+00 1.35200E+01 5.00000E+00
 -1       338 1.36783E+00 1.54900E+01 5.00000E+00
 -1       339 2.73566E+00 1.62500E+01 5.00000E+00
 -1       340 1.36783E+00 1.07600E+01 5.00000E+00
 -1       341 1.36783E+00 1.21400E+01 5.00000E+00
 -1       342 2.73566E+00 1.29000E+01 5.00000E+00
 -1       343 1.36783E+00 7.86000E+00 5.00000E+00
 -1       344 1.36783E+00 9.31000E+00 5.00000E+00
 -1       345 2.73566E+00 1.00700E+01 5.00000E+00
 -1       346 1.36783E+00 3.89000E+00 5.00000E+00
 -1       347 1.36783E+00 5.87500E+00 5.00000E+00
 -1       348 2.73566E+00 6.63500E+00 5.00000E+00
 -1       349 1.46141E+00 1.16250E+00 5.00000E+00
 -1       350 1.46141E+00 2.72750E+00 5.00000E+00
 -1       351 2.82924E+00 3.48750E+00 5.00000E+00
 -1       352 3.01641E+00 1.16250E+00 5.00000E+00
 -1       353 6.99641E+00 1.16250E+00 5.00000E+00
 -1       354 5.00641E+00 1.16250E+00 5.00000E+00
 -1       355 4.91283E+00 2.32500E+00 5.00000E+00
 -1       356 9.90641E+00 1.16250E+00 5.00000E+00
 -1       357 8.45141E+00 1.16250E+00 5.00000E+00
 -1       358 8.35783E+00 2.32500E+00 5.00000E+00
 -1       359 1.27064E+01 1.16250E+00 5.00000E+00
 -1       360 1.13064E+01 1.16250E+00 5.00000E+00
 -1       361 1.12128E+01 2.32500E+00 5.00000E+00
 -1       362 1.63064E+01 1.16250E+00 5.00000E+00
 -1       363 1.45064E+01 1.16250E+00 5.00000E+00
 -1       364 1.44128E+01 2.32500E+00 5.00000E+00
 -1       365 2.34450E+01 1.51049E+00 5.00000E+00
 -1       366 2.16550E+01 1.51049E+00 5.00000E+00
 -1       367 2.65450E+01 1.51049E+00 5.00000E+00
 -1       368 2.49950E+01 1.51049E+00 5.00000E+00
 -1       369 2.41000E+01 3.02099E+00 5.00000E+00
 -1       370 2.87200E+01 1.38000E+00 5.00000E+00
 -1       371 2.82042E+01 9.83500E+00 5.00000E+00
 -1       372 2.82042E+01 7.70500E+00 5.00000E+00
 -1       373 2.82042E+01 1.33550E+01 5.00000E+00
 -1       374 2.82042E+01 1.15950E+01 5.00000E+00
 -1       375 2.64084E+01 1.05300E+01 5.00000E+00
 -1       376 2.82042E+01 1.64150E+01 5.00000E+00
 -1       377 2.82042E+01 1.48850E+01 5.00000E+00
 -1       378 2.64084E+01 1.38200E+01 5.00000E+00
 -1       379 2.88800E+01 1.87400E+01 5.00000E+00
 -1       380 2.58595E+01 1.86944E+01 5.00000E+00
 -1       381 2.71265E+01 1.86944E+01 5.00000E+00
 -1       382 2.36335E+01 1.86944E+01 5.00000E+00
 -1       383 2.47465E+01 1.86944E+01 5.00000E+00
 -1       384 2.53800E+01 1.73889E+01 5.00000E+00
 -1       385 1.91453E+01 2.20246E+01 5.00000E+00
 -1       386 1.95846E+01 2.09640E+01 5.00000E+00
 -1       387 2.10751E+01 1.98528E+01 5.00000E+00
 -1       388 2.21357E+01 1.94134E+01 5.00000E+00
 -1       389 2.71783E+00 2.79800E+01 5.00000E+00
 -1       390 2.78250E+01 2.89049E+00 5.00000E+00
 -1       391 4.67638E+00 2.66570E+01 5.00000E+00
 -1       392 1.97810E+01 1.99381E+01 5.00000E+00
 -1       393 1.99774E+01 1.89122E+01 5.00000E+00
 -1       394 1.84870E+01 2.00234E+01 5.00000E+00
 -1       395 1.96700E+01 2.08115E+00 5.00000E+00
 -1       396 1.74900E+01 2.08115E+00 5.00000E+00
 -1       397 2.82465E+01 1.74344E+01 5.00000E+00
 -1       398 2.27692E+01 1.81079E+01 5.00000E+00
 -1       399 1.79824E+01 2.28786E+01 5.00000E+00
 -1       400 2.05650E+01 3.59164E+00 5.00000E+00
 -1       401 1.60757E+01 2.60310E+01 5.00000E+00
 -1       402 1.61342E+01 2.47080E+01 5.00000E+00
 -1       403 1.45357E+01 2.60310E+01 5.00000E+00
 -1       404 5.10214E+00 1.52650E+01 5.00000E+00
 -1       405 5.10214E+00 1.72350E+01 5.00000E+00
 -1       406 5.10214E+00 1.93550E+01 5.00000E+00
 -1       407 5.10214E+00 2.14750E+01 5.00000E+00
 -1       408 7.46862E+00 1.83700E+01 5.00000E+00
 -1       409 2.90030E+01 4.33303E+00 5.00000E+00
 -1       410 2.68280E+01 4.46352E+00 5.00000E+00
 -1       411 4.88926E+00 2.31910E+01 5.00000E+00
 -1       412 4.88926E+00 2.49410E+01 5.00000E+00
 -1       413 6.82998E+00 2.56380E+01 5.00000E+00
 -1       414 7.25574E+00 2.22060E+01 5.00000E+00
 -1       415 5.10214E+00 1.25050E+01 5.00000E+00
 -1       416 5.10214E+00 1.38850E+01 5.00000E+00
 -1       417 7.46862E+00 1.48700E+01 5.00000E+00
 -1       418 4.53148E+00 5.64250E+00 5.00000E+00
 -1       419 4.53148E+00 7.62750E+00 5.00000E+00
 -1       420 1.19128E+01 3.83549E+00 5.00000E+00
 -1       421 1.05128E+01 3.83549E+00 5.00000E+00
 -1       422 1.55128E+01 3.83549E+00 5.00000E+00
 -1       423 1.37128E+01 3.83549E+00 5.00000E+00
 -1       424 1.30128E+01 5.34599E+00 5.00000E+00
 -1       425 2.64507E+01 1.63694E+01 5.00000E+00
 -1       426 2.72071E+01 7.33803E+00 5.00000E+00
 -1       427 2.90030E+01 6.27303E+00 5.00000E+00
 -1       428 2.43895E+01 1.14100E+01 5.00000E+00
 -1       429 2.43895E+01 9.65000E+00 5.00000E+00
 -1       430 2.15171E+01 1.74190E+01 5.00000E+00
 -1       431 2.30148E+01 1.67000E+01 5.00000E+00
 -1       432 2.53377E+01 1.63694E+01 5.00000E+00
 -1       433 1.64424E+01 2.28786E+01 5.00000E+00
 -1       434 1.67506E+01 2.10493E+01 5.00000E+00
 -1       435 1.49024E+01 2.28786E+01 5.00000E+00
 -1       436 2.24603E+01 6.77549E+00 5.00000E+00
 -1       437 2.04753E+01 7.34615E+00 5.00000E+00
 -1       438 8.97998E+00 2.56380E+01 5.00000E+00
 -1       439 1.27557E+01 2.60310E+01 5.00000E+00
 -1       440 2.41763E+01 1.57697E+01 5.00000E+00
 -1       441 2.52469E+01 1.47503E+01 5.00000E+00
 -1       442 2.52469E+01 1.32203E+01 5.00000E+00
 -1       443 2.29241E+01 1.50809E+01 5.00000E+00
 -1       444 6.32730E+00 8.08500E+00 5.00000E+00
 -1       445 4.53148E+00 9.07750E+00 5.00000E+00
 -1       446 4.53148E+00 1.05275E+01 5.00000E+00
 -1       447 2.62470E+01 6.14018E+00 5.00000E+00
 -1       448 2.50690E+01 4.69764E+00 5.00000E+00
 -1       449 1.69470E+01 2.00234E+01 5.00000E+00
 -1       450 1.71433E+01 1.89975E+01 5.00000E+00
 -1       451 1.54070E+01 2.00234E+01 5.00000E+00
 -1       452 2.32281E+01 1.23403E+01 5.00000E+00
 -1       453 1.10219E+01 2.49198E+01 5.00000E+00
 -1       454 1.28605E+01 2.35968E+01 5.00000E+00
 -1       455 1.31687E+01 2.17675E+01 5.00000E+00
 -1       456 9.08479E+00 2.32038E+01 5.00000E+00
 -1       457 8.77007E+00 5.99049E+00 5.00000E+00
 -1       458 8.07006E+00 4.48000E+00 5.00000E+00
 -1       459 4.81924E+00 3.48750E+00 5.00000E+00
 -1       460 6.61507E+00 4.48000E+00 5.00000E+00
 -1       461 6.89796E+00 1.15125E+01 5.00000E+00
 -1       462 2.54482E+01 7.57215E+00 5.00000E+00
 -1       463 2.35190E+01 4.69764E+00 5.00000E+00
 -1       464 2.02230E+01 1.75043E+01 5.00000E+00
 -1       465 2.04686E+01 1.60965E+01 5.00000E+00
 -1       466 1.89290E+01 1.75896E+01 5.00000E+00
 -1       467 2.34293E+01 8.45215E+00 5.00000E+00
 -1       468 2.20666E+01 1.32706E+01 5.00000E+00
 -1       469 2.12092E+01 1.14603E+01 5.00000E+00
 -1       470 2.09052E+01 1.42009E+01 5.00000E+00
 -1       471 1.39128E+01 7.14181E+00 5.00000E+00
 -1       472 1.21128E+01 7.14181E+00 5.00000E+00
 -1       473 1.94430E+01 1.01167E+01 5.00000E+00
 -1       474 1.75477E+01 6.93286E+00 5.00000E+00
 -1       475 1.73964E+01 3.24365E+00 5.00000E+00
 -1       476 1.66964E+01 4.75414E+00 5.00000E+00
 -1       477 7.83401E+00 8.02650E+00 5.00000E+00
 -1       478 7.83401E+00 9.47650E+00 5.00000E+00
 -1       479 8.40467E+00 1.14540E+01 5.00000E+00
 -1       480 1.02768E+01 7.38199E+00 5.00000E+00
 -1       481 9.29767E+00 2.14878E+01 5.00000E+00
 -1       482 1.56641E+01 7.52470E+00 5.00000E+00
 -1       483 1.47641E+01 9.32053E+00 5.00000E+00
 -1       484 9.29767E+00 1.72478E+01 5.00000E+00
 -1       485 9.29767E+00 1.93678E+01 5.00000E+00
 -1       486 1.11267E+01 2.03656E+01 5.00000E+00
 -1       487 1.58490E+01 1.75896E+01 5.00000E+00
 -1       488 1.73890E+01 1.75896E+01 5.00000E+00
 -1       489 1.76346E+01 1.61818E+01 5.00000E+00
 -1       490 9.29767E+00 1.58678E+01 5.00000E+00
 -1       491 1.11267E+01 1.68656E+01 5.00000E+00
 -1       492 9.29767E+00 1.44878E+01 5.00000E+00
 -1       493 1.96112E+01 1.42862E+01 5.00000E+00
 -1       494 1.51343E+01 1.18238E+01 5.00000E+00
 -1       495 1.33830E+01 1.14409E+01 5.00000E+00
 -1       496 1.02337E+01 1.24518E+01 5.00000E+00
 -1       497 1.11768E+01 9.17781E+00 5.00000E+00
 -1       498 1.82816E+01 1.10470E+01 5.00000E+00
 -1       499 1.31687E+01 1.96475E+01 5.00000E+00
 -1       500 1.69005E+01 1.31674E+01 5.00000E+00
 -1       501 1.15470E+01 1.16811E+01 5.00000E+00
 -1       502 1.64639E+01 1.50630E+01 5.00000E+00
 -1       503 1.29646E+01 1.77567E+01 5.00000E+00
 -1       504 1.50065E+01 1.91585E+01 5.00000E+00
 -1       505 1.24400E+01 1.47150E+01 5.00000E+00
 -1       506 1.29646E+01 1.63767E+01 5.00000E+00
 -1       507 1.42778E+01 1.56060E+01 5.00000E+00
 -1       508 1.49239E+01 1.50630E+01 5.00000E+00
 -1       509 1.54485E+01 1.67247E+01 5.00000E+00
 -1       510 1.52029E+01 1.81326E+01 5.00000E+00
 -1       511 1.88371E+01 2.35653E+01 0.00000E+00
 -1       512 1.88371E+01 2.46957E+01 0.00000E+00
 -1       513 1.88371E+01 2.59557E+01 0.00000E+00
 -1       514 1.88371E+01 2.72157E+01 0.00000E+00
 -1       515 1.76742E+01 2.53905E+01 0.00000E+00
 -1       516 1.85600E+01 2.88905E+01 0.00000E+00
 -1       517 1.62350E+01 2.86322E+01 0.00000E+00
 -1       518 1.44650E+01 2.86322E+01 0.00000E+00
 -1       519 1.23750E+01 2.86322E+01 0.00000E+00
 -1       520 1.02850E+01 2.86322E+01 0.00000E+00
 -1       521 1.32600E+01 2.72643E+01 0.00000E+00
 -1       522 7.55500E+00 2.86322E+01 0.00000E+00
 -1       523 4.82500E+00 2.86322E+01 0.00000E+00
 -1       524 8.44000E+00 2.72643E+01 0.00000E+00
 -1       525 3.39750E+00 2.87061E+01 0.00000E+00
 -1       526 1.42750E+00 2.87061E+01 0.00000E+00
 -1       527 1.42750E+00 2.74861E+01 0.00000E+00
 -1       528 4.28250E+00 2.73383E+01 0.00000E+00
 -1       529 1.42750E+00 2.58861E+01 0.00000E+00
 -1       530 1.79582E+00 2.33350E+01 0.00000E+00
 -1       531 1.79582E+00 2.12850E+01 0.00000E+00
 -1       532 1.79582E+00 1.92350E+01 0.00000E+00
 -1       533 1.79582E+00 1.71850E+01 0.00000E+00
 -1       534 3.59164E+00 2.02600E+01 0.00000E+00
 -1       535 1.79582E+00 1.54750E+01 0.00000E+00
 -1       536 1.79582E+00 1.37650E+01 0.00000E+00
 -1       537 3.59164E+00 1.65000E+01 0.00000E+00
 -1       538 1.79582E+00 1.23950E+01 0.00000E+00
 -1       539 1.79582E+00 1.10250E+01 0.00000E+00
 -1       540 3.59164E+00 1.34200E+01 0.00000E+00
 -1       541 1.79582E+00 9.54000E+00 0.00000E+00
 -1       542 1.79582E+00 8.05500E+00 0.00000E+00
 -1       543 3.59164E+00 1.05650E+01 0.00000E+00
 -1       544 1.79582E+00 6.20500E+00 0.00000E+00
 -1       545 1.79582E+00 4.35500E+00 0.00000E+00
 -1       546 3.59164E+00 7.23000E+00 0.00000E+00
 -1       547 1.65000E+00 1.66500E+00 0.00000E+00
 -1       548 4.23000E+00 1.51049E+00 0.00000E+00
 -1       549 6.09000E+00 1.51049E+00 0.00000E+00
 -1       550 7.58000E+00 1.51049E+00 0.00000E+00
 -1       551 9.07000E+00 1.51049E+00 0.00000E+00
 -1       552 6.65000E+00 3.02099E+00 0.00000E+00
 -1       553 1.03800E+01 1.51049E+00 0.00000E+00
 -1       554 1.16900E+01 1.51049E+00 0.00000E+00
 -1       555 9.45000E+00 3.02099E+00 0.00000E+00
 -1       556 1.32700E+01 1.51049E+00 0.00000E+00
 -1       557 1.48500E+01 1.51049E+00 0.00000E+00
 -1       558 1.23400E+01 3.02099E+00 0.00000E+00
 -1       559 1.72400E+01 1.51049E+00 0.00000E+00
 -1       560 1.96300E+01 1.51049E+00 0.00000E+00
 -1       561 1.63100E+01 3.02099E+00 0.00000E+00
 -1       562 2.16300E+01 1.51049E+00 0.00000E+00
 -1       563 2.36300E+01 1.51049E+00 0.00000E+00
 -1       564 2.07000E+01 3.02099E+00 0.00000E+00
 -1       565 2.51500E+01 1.51049E+00 0.00000E+00
 -1       566 2.66700E+01 1.51049E+00 0.00000E+00
 -1       567 2.42200E+01 3.02099E+00 0.00000E+00
 -1       568 2.77350E+01 1.69525E+00 0.00000E+00
 -1       569 2.89350E+01 1.69525E+00 0.00000E+00
 -1       570 2.89350E+01 3.57525E+00 0.00000E+00
 -1       571 2.68050E+01 3.20574E+00 0.00000E+00
 -1       572 2.79188E+01 1.01900E+01 0.00000E+00
 -1       573 2.79188E+01 1.24900E+01 0.00000E+00
 -1       574 2.79188E+01 1.43400E+01 0.00000E+00
 -1       575 2.79188E+01 1.61900E+01 0.00000E+00
 -1       576 2.58377E+01 1.31900E+01 0.00000E+00
 -1       577 2.82115E+01 1.86700E+01 0.00000E+00
 -1       578 2.55672E+01 1.88371E+01 0.00000E+00
 -1       579 2.38557E+01 1.88371E+01 0.00000E+00
 -1       580 1.95846E+01 2.09640E+01 0.00000E+00
 -1       581 1.91453E+01 2.20246E+01 0.00000E+00
 -1       582 2.21357E+01 1.94134E+01 0.00000E+00
 -1       583 2.10751E+01 1.98528E+01 0.00000E+00
 -1       584 1.79657E+00 3.46031E+00 0.00000E+00
 -1       585 3.44657E+00 1.79531E+00 0.00000E+00
 -1       586 2.29915E+01 1.82505E+01 0.00000E+00
 -1       587 2.21272E+01 1.76640E+01 0.00000E+00
 -1       588 2.38472E+01 1.70877E+01 0.00000E+00
 -1       589 2.61304E+01 1.75200E+01 0.00000E+00
 -1       590 2.76335E+01 5.08000E+00 0.00000E+00
 -1       591 2.76335E+01 7.72000E+00 0.00000E+00
 -1       592 2.55524E+01 8.87000E+00 0.00000E+00
 -1       593 1.97810E+01 1.99381E+01 0.00000E+00
 -1       594 1.84870E+01 2.00234E+01 0.00000E+00
 -1       595 1.99774E+01 1.89122E+01 0.00000E+00
 -1       596 1.79824E+01 2.25899E+01 0.00000E+00
 -1       597 1.73971E+01 2.83253E+01 0.00000E+00
 -1       598 1.65121E+01 2.69574E+01 0.00000E+00
 -1       599 1.65121E+01 2.56974E+01 0.00000E+00
 -1       600 1.53500E+01 2.60043E+01 0.00000E+00
 -1       601 1.65121E+01 2.44374E+01 0.00000E+00
 -1       602 3.22332E+00 2.48611E+01 0.00000E+00
 -1       603 9.80500E+00 2.51832E+01 0.00000E+00
 -1       604 7.07500E+00 2.51832E+01 0.00000E+00
 -1       605 4.65082E+00 2.47872E+01 0.00000E+00
 -1       606 5.67279E+00 1.73550E+01 0.00000E+00
 -1       607 5.67279E+00 1.56450E+01 0.00000E+00
 -1       608 5.67279E+00 1.42750E+01 0.00000E+00
 -1       609 5.67279E+00 1.29050E+01 0.00000E+00
 -1       610 7.75394E+00 1.51300E+01 0.00000E+00
 -1       611 5.67279E+00 1.14200E+01 0.00000E+00
 -1       612 5.67279E+00 9.93500E+00 0.00000E+00
 -1       613 7.75394E+00 1.22750E+01 0.00000E+00
 -1       614 5.67279E+00 8.08500E+00 0.00000E+00
 -1       615 5.67279E+00 6.23500E+00 0.00000E+00
 -1       616 7.75394E+00 8.94000E+00 0.00000E+00
 -1       617 4.37657E+00 3.30581E+00 0.00000E+00
 -1       618 8.79500E+00 4.38881E+00 0.00000E+00
 -1       619 1.01050E+01 4.38881E+00 0.00000E+00
 -1       620 1.16850E+01 4.38881E+00 0.00000E+00
 -1       621 1.32650E+01 4.38881E+00 0.00000E+00
 -1       622 1.10300E+01 5.75664E+00 0.00000E+00
 -1       623 1.56550E+01 4.38881E+00 0.00000E+00
 -1       624 1.80450E+01 4.38881E+00 0.00000E+00
 -1       625 1.50000E+01 5.75664E+00 0.00000E+00
 -1       626 2.00450E+01 4.38881E+00 0.00000E+00
 -1       627 2.20450E+01 4.38881E+00 0.00000E+00
 -1       628 1.93900E+01 5.75664E+00 0.00000E+00
 -1       629 1.71285E+01 2.13562E+01 0.00000E+00
 -1       630 1.68203E+01 2.28968E+01 0.00000E+00
 -1       631 1.56582E+01 2.32037E+01 0.00000E+00
 -1       632 6.01582E+00 2.27060E+01 0.00000E+00
 -1       633 1.32600E+01 2.60043E+01 0.00000E+00
 -1       634 1.18950E+01 2.39232E+01 0.00000E+00
 -1       635 2.16184E+01 1.63933E+01 0.00000E+00
 -1       636 2.07627E+01 1.75562E+01 0.00000E+00
 -1       637 5.95812E+00 2.12850E+01 0.00000E+00
 -1       638 5.95812E+00 1.92350E+01 0.00000E+00
 -1       639 1.94686E+01 1.76415E+01 0.00000E+00
 -1       640 3.59239E+00 4.48531E+00 0.00000E+00
 -1       641 6.45697E+00 5.05549E+00 0.00000E+00
 -1       642 7.94697E+00 5.05549E+00 0.00000E+00
 -1       643 2.33285E+01 6.07832E+00 0.00000E+00
 -1       644 2.39835E+01 4.71049E+00 0.00000E+00
 -1       645 1.73249E+01 2.03303E+01 0.00000E+00
 -1       646 1.61628E+01 2.06372E+01 0.00000E+00
 -1       647 1.75212E+01 1.93044E+01 0.00000E+00
 -1       648 2.55035E+01 4.71049E+00 0.00000E+00
 -1       649 2.65685E+01 4.89525E+00 0.00000E+00
 -1       650 2.38188E+01 1.22650E+01 0.00000E+00
 -1       651 2.38188E+01 1.41150E+01 0.00000E+00
 -1       652 2.23914E+01 1.48455E+01 0.00000E+00
 -1       653 2.44103E+01 1.57705E+01 0.00000E+00
 -1       654 2.31207E+01 7.89942E+00 0.00000E+00
 -1       655 2.34060E+01 1.03694E+01 0.00000E+00
 -1       656 8.38230E+00 2.16810E+01 0.00000E+00
 -1       657 8.03927E+00 1.83800E+01 0.00000E+00
 -1       658 2.11822E+01 7.57774E+00 0.00000E+00
 -1       659 2.13872E+01 1.12944E+01 0.00000E+00
 -1       660 2.52746E+01 1.63571E+01 0.00000E+00
 -1       661 1.01204E+01 1.58150E+01 0.00000E+00
 -1       662 1.01204E+01 1.44450E+01 0.00000E+00
 -1       663 2.10269E+01 1.47378E+01 0.00000E+00
 -1       664 1.91822E+01 7.57774E+00 0.00000E+00
 -1       665 1.86123E+01 1.62402E+01 0.00000E+00
 -1       666 1.78270E+01 1.75962E+01 0.00000E+00
 -1       667 1.01204E+01 1.29600E+01 0.00000E+00
 -1       668 1.01204E+01 1.14750E+01 0.00000E+00
 -1       669 1.24869E+01 1.36450E+01 0.00000E+00
 -1       670 8.60197E+00 6.42332E+00 0.00000E+00
 -1       671 1.38050E+01 8.12312E+00 0.00000E+00
 -1       672 1.61950E+01 8.12312E+00 0.00000E+00
 -1       673 2.02014E+01 1.09466E+01 0.00000E+00
 -1       674 2.06142E+01 1.28422E+01 0.00000E+00
 -1       675 1.98412E+01 1.43899E+01 0.00000E+00
 -1       676 1.79872E+01 9.94422E+00 0.00000E+00
 -1       677 8.96796E+00 7.68166E+00 0.00000E+00
 -1       678 9.81599E+00 7.01498E+00 0.00000E+00
 -1       679 1.13960E+01 7.01498E+00 0.00000E+00
 -1       680 8.96796E+00 9.53166E+00 0.00000E+00
 -1       681 4.37582E+00 4.20049E+00 0.00000E+00
 -1       682 1.04058E+01 1.76950E+01 0.00000E+00
 -1       683 1.72142E+01 1.14920E+01 0.00000E+00
 -1       684 1.40893E+01 2.23696E+01 0.00000E+00
 -1       685 1.06343E+01 2.15484E+01 0.00000E+00
 -1       686 1.66649E+01 1.79031E+01 0.00000E+00
 -1       687 1.81995E+01 1.43446E+01 0.00000E+00
 -1       688 1.13344E+01 1.02167E+01 0.00000E+00
 -1       689 1.25910E+01 9.38146E+00 0.00000E+00
 -1       690 1.05766E+01 2.01274E+01 0.00000E+00
 -1       691 1.26578E+01 1.75624E+01 0.00000E+00
 -1       692 1.43975E+01 2.08290E+01 0.00000E+00
 -1       693 1.45939E+01 1.98031E+01 0.00000E+00
 -1       694 1.44230E+01 1.73707E+01 0.00000E+00
 -1       695 1.47288E+01 1.56624E+01 0.00000E+00
 -1       696 1.59853E+01 1.33422E+01 0.00000E+00
 -1       697 1.37435E+01 1.13248E+01 0.00000E+00
 -1       698 1.47288E+01 1.41774E+01 0.00000E+00
 -1       699 2.02284E+01 2.18519E+01 1.26000E+00
 -1       700 2.02284E+01 2.18519E+01 3.76000E+00
 -1       701 2.18519E+01 2.02284E+01 1.26000E+00
 -1       702 2.18519E+01 2.02284E+01 3.76000E+00
 -1       703 2.08787E+01 2.08787E+01 2.52000E+00
 -1       704 2.82115E+01 2.00000E+01 1.24250E+00
 -1       705 2.88800E+01 2.00000E+01 3.74250E+00
 -1       706 2.41130E+01 2.00000E+01 3.76000E+00
 -1       707 2.47115E+01 2.00000E+01 1.26000E+00
 -1       708 2.71265E+01 2.00000E+01 3.69444E+00
 -1       709 2.58595E+01 2.00000E+01 3.69444E+00
 -1       710 2.82465E+01 2.00000E+01 2.43694E+00
 -1       711 2.47465E+01 2.00000E+01 2.45444E+00
 -1       712 2.64580E+01 2.00000E+01 1.19444E+00
 -1       713 3.00000E+01 1.38000E+00 3.70250E+00
 -1       714 3.00000E+01 1.86700E+01 1.24250E+00
 -1       715 3.00000E+01 1.87400E+01 3.74250E+00
 -1       716 3.00000E+01 1.88000E+00 1.20250E+00
 -1       717 3.00000E+01 7.84000E+00 2.50000E+00
 -1       718 3.00000E+01 5.20000E+00 2.50000E+00
 -1       719 3.00000E+01 1.22700E+01 2.50000E+00
 -1       720 3.00000E+01 9.97000E+00 2.50000E+00
 -1       721 3.00000E+01 1.66800E+01 3.75000E+00
 -1       722 3.00000E+01 1.79400E+01 2.49250E+00
 -1       723 3.00000E+01 1.66100E+01 1.25000E+00
 -1       724 3.00000E+01 1.51500E+01 3.75000E+00
 -1       725 3.00000E+01 1.40300E+01 2.50000E+00
 -1       726 3.00000E+01 3.26000E+00 2.50000E+00
 -1       727 3.00000E+01 1.47600E+01 1.25000E+00
 -1       728 1.13100E+01 0.00000E+00 1.20000E+00
 -1       729 1.13550E+01 0.00000E+00 2.45000E+00
 -1       730 1.13550E+01 0.00000E+00 3.75000E+00
 -1       731 1.27550E+01 0.00000E+00 3.75000E+00
 -1       732 1.26650E+01 0.00000E+00 1.25000E+00
 -1       733 2.88000E+01 0.00000E+00 1.20250E+00
 -1       734 2.87600E+01 0.00000E+00 3.75000E+00
 -1       735 2.87600E+01 0.00000E+00 2.45250E+00
 -1       736 2.75600E+01 0.00000E+00 1.25000E+00
 -1       737 2.74800E+01 0.00000E+00 3.75000E+00
 -1       738 1.42450E+01 0.00000E+00 1.25000E+00
 -1       739 1.84800E+01 0.00000E+00 2.50000E+00
 -1       740 1.60900E+01 0.00000E+00 2.50000E+00
 -1       741 2.44500E+01 0.00000E+00 2.50000E+00
 -1       742 2.24500E+01 0.00000E+00 2.50000E+00
 -1       743 2.60400E+01 0.00000E+00 1.25000E+00
 -1       744 1.45550E+01 0.00000E+00 3.75000E+00
 -1       745 2.59300E+01 0.00000E+00 3.75000E+00
 -1       746 2.06600E+01 0.00000E+00 2.50000E+00
 -1       747 1.65000E+00 0.00000E+00 1.24250E+00
 -1       748 1.55500E+00 0.00000E+00 3.74250E+00
 -1       749 8.51000E+00 0.00000E+00 1.20000E+00
 -1       750 8.54500E+00 0.00000E+00 3.70000E+00
 -1       751 3.20500E+00 0.00000E+00 2.50000E+00
 -1       752 7.05500E+00 0.00000E+00 2.50000E+00
 -1       753 6.09000E+00 0.00000E+00 1.51049E+00
 -1       754 4.23000E+00 0.00000E+00 1.51049E+00
 -1       755 4.13500E+00 0.00000E+00 4.01049E+00
 -1       756 6.12500E+00 0.00000E+00 4.01049E+00
 -1       757 0.00000E+00 8.51500E+00 1.20000E+00
 -1       758 0.00000E+00 8.55000E+00 3.70000E+00
 -1       759 0.00000E+00 1.66500E+00 1.24250E+00
 -1       760 0.00000E+00 1.56500E+00 3.74250E+00
 -1       761 0.00000E+00 7.06500E+00 2.50000E+00
 -1       762 0.00000E+00 3.23000E+00 2.50000E+00
 -1       763 0.00000E+00 4.25500E+00 1.51049E+00
 -1       764 0.00000E+00 6.10500E+00 1.51049E+00
 -1       765 0.00000E+00 6.14000E+00 4.01049E+00
 -1       766 0.00000E+00 4.15500E+00 4.01049E+00
 -1       767 0.00000E+00 2.87800E+01 1.20250E+00
 -1       768 0.00000E+00 2.87600E+01 2.45250E+00
 -1       769 0.00000E+00 2.87600E+01 3.75000E+00
 -1       770 0.00000E+00 2.75000E+01 3.75000E+00
 -1       771 0.00000E+00 2.75400E+01 1.25000E+00
 -1       772 0.00000E+00 1.13700E+01 1.20000E+00
 -1       773 0.00000E+00 1.13800E+01 3.70000E+00
 -1       774 0.00000E+00 2.59400E+01 1.25000E+00
 -1       775 0.00000E+00 2.06000E+01 2.50000E+00
 -1       776 0.00000E+00 2.26500E+01 2.50000E+00
 -1       777 0.00000E+00 1.64300E+01 2.50000E+00
 -1       778 0.00000E+00 1.84800E+01 2.50000E+00
 -1       779 0.00000E+00 1.27500E+01 2.50000E+00
 -1       780 0.00000E+00 2.59800E+01 3.75000E+00
 -1       781 0.00000E+00 2.44000E+01 2.50000E+00
 -1       782 0.00000E+00 1.44600E+01 2.50000E+00
 -1       783 1.85600E+01 3.00000E+01 1.20000E+00
 -1       784 1.87200E+01 3.00000E+01 3.70000E+00
 -1       785 1.35000E+00 3.00000E+01 3.70250E+00
 -1       786 1.78700E+01 3.00000E+01 2.45000E+00
 -1       787 1.65900E+01 3.00000E+01 3.75000E+00
 -1       788 1.50500E+01 3.00000E+01 3.75000E+00
 -1       789 1.64300E+01 3.00000E+01 1.25000E+00
 -1       790 1.46600E+01 3.00000E+01 1.25000E+00
 -1       791 1.01000E+01 3.00000E+01 2.50000E+00
 -1       792 1.21900E+01 3.00000E+01 2.50000E+00
 -1       793 5.22000E+00 3.00000E+01 2.50000E+00
 -1       794 7.95000E+00 3.00000E+01 2.50000E+00
 -1       795 1.97000E+00 3.00000E+01 1.20250E+00
 -1       796 1.39700E+01 3.00000E+01 2.50000E+00
 -1       797 3.32000E+00 3.00000E+01 2.50000E+00
 -1       798 2.00000E+01 2.41305E+01 1.26000E+00
 -1       799 2.00000E+01 2.88905E+01 1.20000E+00
 -1       800 2.00000E+01 2.85492E+01 3.75000E+00
 -1       801 2.00000E+01 2.85492E+01 2.45000E+00
 -1       802 2.00000E+01 2.74398E+01 1.25000E+00
 -1       803 2.00000E+01 2.67572E+01 3.75000E+00
 -1       804 2.00000E+01 2.61798E+01 1.25000E+00
 -1       805 2.00000E+01 2.40246E+01 3.75500E+00
 -1       806 2.00000E+01 2.57326E+01 3.75500E+00
 -1       807 2.00000E+01 2.60739E+01 2.50500E+00
 -1       808 2.00000E+01 2.40246E+01 2.51500E+00
 -1       809 2.00000E+01 2.51551E+01 1.25500E+00
 -1       810 4.67750E+00 2.87061E+01 2.50000E+00
 -1       811 2.77750E+00 2.87061E+01 2.50000E+00
 -1       812 1.42750E+00 2.87061E+01 1.20250E+00
 -1       813 2.09238E+01 1.27903E+01 2.50000E+00
 -1       814 2.05111E+01 1.08947E+01 2.50000E+00
 -1       815 2.20853E+01 1.18600E+01 2.50000E+00
 -1       816 2.16725E+01 9.96442E+00 2.50000E+00
 -1       817 4.73605E+00 2.73831E+01 2.50000E+00
 -1       818 2.42369E+01 7.70263E+00 3.89684E+00
 -1       819 2.22180E+01 8.58263E+00 3.89684E+00
 -1       820 2.15199E+01 8.01705E+00 1.39684E+00
 -1       821 2.36914E+01 9.08442E+00 2.50000E+00
 -1       822 2.61230E+01 1.36650E+01 2.50000E+00
 -1       823 2.82042E+01 1.29650E+01 2.50000E+00
 -1       824 2.82042E+01 1.40850E+01 3.75000E+00
 -1       825 2.79188E+01 1.54600E+01 1.25000E+00
 -1       826 1.63435E+01 2.01274E+01 2.52176E+00
 -1       827 1.73998E+01 2.05171E+01 2.53953E+00
 -1       828 1.68691E+01 1.93946E+01 3.73546E+00
 -1       829 1.56084E+01 2.08527E+01 2.59036E+00
 -1       830 1.50778E+01 1.97303E+01 3.78630E+00
 -1       831 1.61340E+01 2.01199E+01 3.80407E+00
 -1       832 1.40064E+01 9.71362E+00 2.50000E+00
 -1       833 1.28114E+01 7.34714E+00 2.50000E+00
 -1       834 1.15974E+01 8.60548E+00 2.50000E+00
 -1       835 2.15550E+01 1.51049E+00 2.50000E+00
 -1       836 2.09393E+01 6.65452E+00 2.16215E+00
 -1       837 2.02160E+01 5.67717E+00 1.85151E+00
 -1       838 1.95987E+01 6.41420E+00 2.25289E+00
 -1       839 2.13421E+01 5.65792E+00 2.48304E+00
 -1       840 2.07248E+01 6.39495E+00 2.88441E+00
 -1       841 2.00015E+01 5.41761E+00 2.57378E+00
 -1       842 1.57577E+01 1.00965E+01 2.50000E+00
 -1       843 1.43766E+01 1.22169E+01 2.50000E+00
 -1       844 3.11141E+00 1.16250E+00 2.50000E+00
 -1       845 1.46141E+00 1.16250E+00 3.74250E+00
 -1       846 2.12359E+01 9.46911E+00 3.86563E+00
 -1       847 2.08351E+01 9.01980E+00 4.47466E+00
 -1       848 2.10833E+01 7.52174E+00 2.76247E+00
 -1       849 2.06825E+01 7.07243E+00 3.37149E+00
 -1       850 1.97004E+01 7.95891E+00 3.34029E+00
 -1       851 6.10500E+00 2.86322E+01 2.50000E+00
 -1       852 6.16355E+00 2.73092E+01 2.50000E+00
 -1       853 1.72470E+01 1.97016E+01 1.23546E+00
 -1       854 1.54557E+01 2.00372E+01 1.28630E+00
 -1       855 1.65119E+01 2.04268E+01 1.30407E+00
 -1       856 1.74117E+01 1.89189E+01 2.43208E+00
 -1       857 1.56203E+01 1.92545E+01 2.48292E+00
 -1       858 1.65238E+01 1.88287E+01 1.19662E+00
 -1       859 3.16440E+00 4.12031E+00 2.50000E+00
 -1       860 3.25798E+00 2.95781E+00 2.50000E+00
 -1       861 1.79657E+00 4.38531E+00 1.51049E+00
 -1       862 1.36783E+00 4.91500E+00 4.01049E+00
 -1       863 1.46141E+00 3.75250E+00 4.01049E+00
 -1       864 1.19777E+01 1.91203E+01 2.50000E+00
 -1       865 1.38155E+01 1.86313E+01 2.50000E+00
 -1       866 1.18068E+01 1.66878E+01 2.50000E+00
 -1       867 1.36447E+01 1.61988E+01 2.50000E+00
 -1       868 9.97776E+00 1.28250E+01 2.50000E+00
 -1       869 1.18068E+01 1.38228E+01 2.50000E+00
 -1       870 1.09138E+01 1.07890E+01 2.50000E+00
 -1       871 2.32767E+01 6.50478E+00 3.89684E+00
 -1       872 2.61230E+01 1.00550E+01 2.50000E+00
 -1       873 2.61230E+01 1.18150E+01 2.50000E+00
 -1       874 2.79188E+01 1.11200E+01 2.50000E+00
 -1       875 1.61179E+01 2.23685E+01 1.56275E+00
 -1       876 1.64670E+01 2.21581E+01 2.86681E+00
 -1       877 1.70554E+01 2.28781E+01 2.46064E+00
 -1       878 1.63155E+01 2.14527E+01 1.30407E+00
 -1       879 1.69039E+01 2.21728E+01 8.97895E-01
 -1       880 1.72531E+01 2.19624E+01 2.20196E+00
 -1       881 7.52855E+00 2.52280E+01 2.50000E+00
 -1       882 7.74143E+00 2.35120E+01 2.50000E+00
 -1       883 6.37643E+00 2.55932E+01 2.50000E+00
 -1       884 2.17277E+01 6.19595E+00 1.39684E+00
 -1       885 2.06016E+01 6.21521E+00 7.65312E-01
 -1       886 2.03938E+01 8.03630E+00 7.65312E-01
 -1       887 2.35200E+01 1.51049E+00 2.50000E+00
 -1       888 2.06250E+01 3.02099E+00 2.50000E+00
 -1       889 1.97300E+01 1.51049E+00 2.50000E+00
 -1       890 7.61128E+00 1.36250E+01 2.50000E+00
 -1       891 9.44033E+00 1.46228E+01 2.50000E+00
 -1       892 1.59376E+01 2.11458E+01 3.80407E+00
 -1       893 1.74776E+01 2.11458E+01 3.80407E+00
 -1       894 1.31200E+01 1.30521E+01 2.50000E+00
 -1       895 1.86386E+01 1.82241E+01 2.43730E+00
 -1       896 1.76859E+01 1.85217E+01 3.69662E+00
 -1       897 1.96360E+01 1.86999E+01 3.74068E+00
 -1       898 1.93618E+01 1.90970E+01 2.47614E+00
 -1       899 1.84091E+01 1.93946E+01 3.73546E+00
 -1       900 1.48814E+01 2.07562E+01 3.78630E+00
 -1       901 7.88865E+00 6.19582E+00 2.50000E+00
 -1       902 1.03314E+01 5.55131E+00 2.50000E+00
 -1       903 9.39536E+00 7.58732E+00 2.50000E+00
 -1       904 2.09301E+01 1.86146E+01 1.24068E+00
 -1       905 1.96360E+01 1.86999E+01 1.24068E+00
 -1       906 2.04213E+01 1.73439E+01 1.24068E+00
 -1       907 2.03227E+01 5.39878E+00 3.89684E+00
 -1       908 1.89398E+01 5.83595E+00 4.47466E+00
 -1       909 8.00855E+00 2.86770E+01 2.50000E+00
 -1       910 1.81001E+01 5.75486E+00 3.66002E+00
 -1       911 1.84599E+01 7.42850E+00 3.13468E+00
 -1       912 1.70678E+01 8.52542E+00 3.66002E+00
 -1       913 1.79075E+01 8.60651E+00 4.47466E+00
 -1       914 2.53884E+01 1.40825E+01 3.84100E+00
 -1       915 2.42270E+01 1.50128E+01 3.84100E+00
 -1       916 2.53884E+01 1.56125E+01 3.84100E+00
 -1       917 2.41041E+01 1.09350E+01 2.50000E+00
 -1       918 1.18068E+01 1.53078E+01 2.50000E+00
 -1       919 2.26250E+01 3.02099E+00 2.50000E+00
 -1       920 2.90030E+01 4.83303E+00 2.50000E+00
 -1       921 2.90030E+01 7.47303E+00 2.50000E+00
 -1       922 1.57400E+01 2.20616E+01 4.06275E+00
 -1       923 1.54107E+01 2.17685E+01 2.84904E+00
 -1       924 3.16365E+00 2.23850E+01 2.50000E+00
 -1       925 1.36783E+00 2.13600E+01 2.50000E+00
 -1       926 1.36783E+00 2.34100E+01 2.50000E+00
 -1       927 3.16365E+00 2.02650E+01 2.50000E+00
 -1       928 1.36783E+00 1.92400E+01 2.50000E+00
 -1       929 2.22009E+01 1.66502E+01 2.99859E+00
 -1       930 2.16750E+01 1.57551E+01 3.74162E+00
 -1       931 2.10880E+01 1.69507E+01 2.48230E+00
 -1       932 2.22886E+01 1.69063E+01 4.25697E+00
 -1       933 2.17016E+01 1.81019E+01 2.99765E+00
 -1       934 2.11757E+01 1.72067E+01 3.74068E+00
 -1       935 2.36662E+01 6.51763E+00 1.39684E+00
 -1       936 2.58377E+01 7.58500E+00 2.50000E+00
 -1       937 2.48775E+01 6.38715E+00 2.50000E+00
 -1       938 5.53013E+00 1.55200E+01 2.50000E+00
 -1       939 3.16365E+00 1.65050E+01 2.50000E+00
 -1       940 5.53013E+00 1.72300E+01 2.50000E+00
 -1       941 3.16365E+00 1.82150E+01 2.50000E+00
 -1       942 2.64930E+01 1.86944E+01 3.69444E+00
 -1       943 2.68174E+01 1.87597E+01 2.37017E+00
 -1       944 2.55912E+01 1.91890E+01 2.93938E+00
 -1       945 2.68174E+01 1.74541E+01 3.67573E+00
 -1       946 2.55912E+01 1.78834E+01 4.24494E+00
 -1       947 2.59156E+01 1.79487E+01 2.92068E+00
 -1       948 1.85600E+01 2.85492E+01 1.25000E+00
 -1       949 1.88371E+01 2.68745E+01 1.25000E+00
 -1       950 2.74509E+01 1.87597E+01 3.67573E+00
 -1       951 1.84712E+01 1.71657E+01 1.19662E+00
 -1       952 1.79316E+01 1.71139E+01 3.69662E+00
 -1       953 1.97143E+01 1.62336E+01 2.50000E+00
 -1       954 1.98817E+01 1.72920E+01 3.74068E+00
 -1       955 2.37519E+01 1.80897E+01 3.50192E+00
 -1       956 2.29072E+01 1.89007E+01 4.25697E+00
 -1       957 2.29072E+01 1.89007E+01 3.01697E+00
 -1       958 2.38447E+01 1.91890E+01 4.24494E+00
 -1       959 2.38447E+01 1.91890E+01 3.00494E+00
 -1       960 1.36783E+00 1.07600E+01 3.70000E+00
 -1       961 4.95947E+00 6.00750E+00 2.50000E+00
 -1       962 3.16365E+00 5.01500E+00 2.50000E+00
 -1       963 3.16365E+00 7.00000E+00 2.50000E+00
 -1       964 1.61459E+01 1.85217E+01 3.69662E+00
 -1       965 2.51030E+01 1.36075E+01 1.34100E+00
 -1       966 2.49616E+01 1.27453E+01 2.50000E+00
 -1       967 2.30842E+01 1.45325E+01 1.34100E+00
 -1       968 2.29427E+01 1.36703E+01 2.50000E+00
 -1       969 7.61128E+00 1.63750E+01 2.50000E+00
 -1       970 2.79533E+00 2.66861E+01 2.50000E+00
 -1       971 1.36783E+00 2.67400E+01 3.75000E+00
 -1       972 1.36783E+00 2.51600E+01 2.50000E+00
 -1       973 1.42750E+00 2.74661E+01 1.25000E+00
 -1       974 2.49577E+01 1.91890E+01 4.24494E+00
 -1       975 2.44782E+01 1.78834E+01 4.24494E+00
 -1       976 1.79582E+00 9.54000E+00 1.20000E+00
 -1       977 2.33765E+01 1.90644E+01 2.10817E+00
 -1       978 2.50880E+01 1.90644E+01 8.48166E-01
 -1       979 2.33765E+01 1.90644E+01 8.48166E-01
 -1       980 1.91939E+01 2.32686E+01 3.04006E+00
 -1       981 1.89207E+01 2.28412E+01 2.15790E+00
 -1       982 1.88447E+01 2.39997E+01 2.27629E+00
 -1       983 1.81146E+01 2.31098E+01 2.67795E+00
 -1       984 1.80386E+01 2.42684E+01 2.79635E+00
 -1       985 1.77655E+01 2.38409E+01 1.91418E+00
 -1       986 8.89355E+00 2.73092E+01 2.50000E+00
 -1       987 2.29779E+01 1.56870E+01 2.58262E+00
 -1       988 2.22851E+01 1.60001E+01 1.24162E+00
 -1       989 2.16936E+01 1.43445E+01 1.24162E+00
 -1       990 2.36757E+01 1.61881E+01 1.34100E+00
 -1       991 1.45877E+01 1.65880E+01 1.19662E+00
 -1       992 1.68296E+01 1.71204E+01 1.19662E+00
 -1       993 2.21357E+01 1.94134E+01 3.76000E+00
 -1       994 2.20430E+01 1.83142E+01 4.25697E+00
 -1       995 1.80726E+01 1.61883E+01 2.50000E+00
 -1       996 5.74365E+00 4.82799E+00 2.50000E+00
 -1       997 6.03141E+00 2.67299E+00 2.50000E+00
 -1       998 3.94783E+00 3.83549E+00 2.50000E+00
 -1       999 8.54733E+00 1.01040E+01 2.50000E+00
 -1      1000 9.76135E+00 8.84566E+00 2.50000E+00
 -1      1001 1.58097E+01 2.39091E+01 1.56275E+00
 -1      1002 1.54318E+01 2.38909E+01 4.06275E+00
 -1      1003 1.49721E+01 2.47262E+01 2.50000E+00
 -1      1004 1.49511E+01 2.26037E+01 1.28630E+00
 -1      1005 1.45732E+01 2.25855E+01 3.78630E+00
 -1      1006 2.89350E+01 3.07525E+00 2.50000E+00
 -1      1007 2.79380E+01 4.64827E+00 2.50000E+00
 -1      1008 1.74776E+01 2.11458E+01 1.30407E+00
 -1      1009 1.82127E+01 2.04205E+01 1.23546E+00
 -1      1010 2.35407E+01 1.75952E+01 4.25697E+00
 -1      1011 1.73285E+01 2.33056E+01 3.34280E+00
 -1      1012 1.80310E+01 2.41226E+01 4.28006E+00
 -1      1013 1.69794E+01 2.40366E+01 2.57904E+00
 -1      1014 1.69718E+01 2.38909E+01 4.06275E+00
 -1      1015 1.76818E+01 2.48537E+01 3.51629E+00
 -1      1016 1.76859E+01 1.85217E+01 1.19662E+00
 -1      1017 2.51030E+01 1.54575E+01 1.34100E+00
 -1      1018 2.54585E+01 4.71049E+00 2.50000E+00
 -1      1019 2.39085E+01 4.71049E+00 2.50000E+00
 -1      1020 1.42908E+01 1.56559E+01 2.50000E+00
 -1      1021 1.63916E+01 1.71139E+01 3.69662E+00
 -1      1022 1.57455E+01 1.76568E+01 3.69662E+00
 -1      1023 1.65326E+01 1.61883E+01 2.50000E+00
 -1      1024 2.40607E+01 1.70020E+01 2.18917E+00
 -1      1025 2.26702E+01 1.68140E+01 2.08978E+00
 -1      1026 2.33680E+01 1.73150E+01 8.48166E-01
 -1      1027 6.96141E+00 1.16250E+00 2.50000E+00
 -1      1028 6.03141E+00 1.16250E+00 4.01049E+00
 -1      1029 1.46141E+00 2.82750E+00 2.50000E+00
 -1      1030 2.16594E+01 3.85078E+00 1.08620E+00
 -1      1031 1.96594E+01 3.85078E+00 1.08620E+00
 -1      1032 2.15844E+01 3.85078E+00 3.58620E+00
 -1      1033 2.35914E+01 1.68382E+01 3.09797E+00
 -1      1034 2.45289E+01 1.71265E+01 3.08595E+00
 -1      1035 2.43177E+01 1.66320E+01 3.84100E+00
 -1      1036 1.59964E+01 1.16250E+00 2.50000E+00
 -1      1037 1.33150E+01 1.51049E+00 1.25000E+00
 -1      1038 1.44614E+01 1.16250E+00 3.75000E+00
 -1      1039 1.50664E+01 2.67299E+00 2.50000E+00
 -1      1040 5.16000E+00 1.51049E+00 1.51049E+00
 -1      1041 1.28821E+01 2.59862E+01 2.50000E+00
 -1      1042 1.49721E+01 2.59862E+01 2.50000E+00
 -1      1043 3.16365E+00 8.85000E+00 2.50000E+00
 -1      1044 1.36783E+00 7.82500E+00 2.50000E+00
 -1      1045 1.36783E+00 9.31000E+00 3.70000E+00
 -1      1046 1.93419E+01 6.83211E+00 3.46223E+00
 -1      1047 1.97427E+01 7.28143E+00 2.85321E+00
 -1      1048 2.30655E+01 1.59431E+01 3.84100E+00
 -1      1049 2.28364E+01 1.48248E+01 3.74162E+00
 -1      1050 1.72800E+01 2.20616E+01 4.06275E+00
 -1      1051 2.32838E+01 1.79652E+01 2.60514E+00
 -1      1052 2.42212E+01 1.82534E+01 2.59311E+00
 -1      1053 2.89350E+01 1.69525E+00 1.20250E+00
 -1      1054 1.97381E+01 1.24425E+01 2.50000E+00
 -1      1055 1.79719E+01 1.10989E+01 2.50000E+00
 -1      1056 1.87449E+01 9.55113E+00 2.50000E+00
 -1      1057 2.09301E+01 1.86146E+01 3.74068E+00
 -1      1058 5.31725E+00 2.31160E+01 2.50000E+00
 -1      1059 3.16365E+00 2.41350E+01 2.50000E+00
 -1      1060 1.03800E+01 1.51049E+00 1.20000E+00
 -1      1061 1.49136E+01 2.73092E+01 2.50000E+00
 -1      1062 1.28236E+01 2.73092E+01 2.50000E+00
 -1      1063 2.21357E+01 1.94134E+01 1.26000E+00
 -1      1064 2.25122E+01 1.84779E+01 8.48166E-01
 -1      1065 1.28394E+01 1.93544E+01 3.78630E+00
 -1      1066 1.28394E+01 2.14744E+01 3.78630E+00
 -1      1067 2.42323E+01 1.79016E+01 8.48166E-01
 -1      1068 2.45399E+01 1.67746E+01 1.34100E+00
 -1      1069 2.57551E+01 1.66972E+01 2.51673E+00
 -1      1070 2.59267E+01 1.75968E+01 1.17573E+00
 -1      1071 2.54474E+01 1.78241E+01 2.02390E+00
 -1      1072 2.64898E+01 1.62797E+01 1.17573E+00
 -1      1073 1.79582E+00 5.28000E+00 1.51049E+00
 -1      1074 9.78336E+00 2.27938E+01 2.50000E+00
 -1      1075 9.67855E+00 2.52280E+01 2.50000E+00
 -1      1076 1.11484E+01 2.48750E+01 2.50000E+00
 -1      1077 1.10436E+01 2.73092E+01 2.50000E+00
 -1      1078 1.65908E+01 1.32193E+01 2.50000E+00
 -1      1079 1.53619E+01 1.50696E+01 2.50000E+00
 -1      1080 1.35000E+00 2.87600E+01 3.75000E+00
 -1      1081 5.53013E+00 1.93500E+01 2.50000E+00
 -1      1082 7.61128E+00 1.84950E+01 2.50000E+00
 -1      1083 2.67751E+01 1.64347E+01 3.67573E+00
 -1      1084 2.54307E+01 1.66320E+01 3.84100E+00
 -1      1085 7.89661E+00 2.03750E+01 2.50000E+00
 -1      1086 2.07337E+01 1.96405E+01 1.24068E+00
 -1      1087 2.17944E+01 1.92011E+01 2.50068E+00
 -1      1088 7.04062E+00 6.86250E+00 2.50000E+00
 -1      1089 2.85709E+01 1.87597E+01 2.41823E+00
 -1      1090 2.85709E+01 1.74297E+01 1.17573E+00
 -1      1091 2.85709E+01 1.66997E+01 2.42573E+00
 -1      1092 2.10044E+01 5.21861E+00 1.08620E+00
 -1      1093 2.23077E+01 4.82812E+00 3.89684E+00
 -1      1094 1.80660E+01 2.18658E+01 3.39790E+00
 -1      1095 1.83392E+01 2.22933E+01 4.28006E+00
 -1      1096 7.04062E+00 1.01625E+01 2.50000E+00
 -1      1097 4.95947E+00 1.07925E+01 2.50000E+00
 -1      1098 4.95947E+00 9.30750E+00 2.50000E+00
 -1      1099 7.04062E+00 8.31250E+00 2.50000E+00
 -1      1100 1.27499E+01 1.05488E+01 2.50000E+00
 -1      1101 1.36783E+00 1.71900E+01 2.50000E+00
 -1      1102 1.36783E+00 1.52200E+01 2.50000E+00
 -1      1103 2.21709E+01 1.82656E+01 2.08884E+00
 -1      1104 2.09206E+01 1.58923E+01 1.24162E+00
 -1      1105 2.17858E+01 1.74517E+01 1.24068E+00
 -1      1106 1.91939E+01 2.32686E+01 4.28006E+00
 -1      1107 1.91453E+01 2.20246E+01 3.76000E+00
 -1      1108 2.23827E+01 4.82812E+00 1.39684E+00
 -1      1109 1.40286E+01 2.86770E+01 2.50000E+00
 -1      1110 1.51086E+01 2.86770E+01 3.75000E+00
 -1      1111 1.89821E+01 5.15847E+00 3.98757E+00
 -1      1112 1.36783E+00 6.90000E+00 4.01049E+00
 -1      1113 1.52593E+01 2.10631E+01 1.28630E+00
 -1      1114 1.86294E+01 5.47830E+00 2.51174E+00
 -1      1115 1.88439E+01 5.73787E+00 1.78948E+00
 -1      1116 1.92467E+01 4.74127E+00 2.11037E+00
 -1      1117 9.72566E+00 2.13728E+01 2.50000E+00
 -1      1118 1.19777E+01 2.12402E+01 2.50000E+00
 -1      1119 9.90641E+00 1.16250E+00 3.70000E+00
 -1      1120 1.13064E+01 1.16250E+00 3.70000E+00
 -1      1121 2.61230E+01 1.51950E+01 2.50000E+00
 -1      1122 1.90674E+01 2.13959E+01 2.49546E+00
 -1      1123 1.95067E+01 2.03352E+01 3.73546E+00
 -1      1124 1.82127E+01 2.04205E+01 3.73546E+00
 -1      1125 2.67824E+01 1.87597E+01 1.17573E+00
 -1      1126 2.66365E+01 6.15303E+00 2.50000E+00
 -1      1127 2.07337E+01 1.96405E+01 3.74068E+00
 -1      1128 7.52141E+00 2.67299E+00 2.50000E+00
 -1      1129 1.26614E+01 1.16250E+00 3.75000E+00
 -1      1130 1.06974E+01 6.80965E+00 2.50000E+00
 -1      1131 1.19114E+01 5.55131E+00 2.50000E+00
 -1      1132 4.95947E+00 7.85750E+00 2.50000E+00
 -1      1133 7.61128E+00 1.21400E+01 2.50000E+00
 -1      1134 1.85022E+01 6.75102E+00 2.64759E+00
 -1      1135 1.80660E+01 2.18658E+01 8.97895E-01
 -1      1136 9.72566E+00 1.92528E+01 2.50000E+00
 -1      1137 2.05079E+01 1.39967E+01 1.24162E+00
 -1      1138 1.93015E+01 1.43381E+01 2.50000E+00
 -1      1139 2.03810E+01 1.58404E+01 3.74162E+00
 -1      1140 1.76818E+01 2.45650E+01 1.01629E+00
 -1      1141 1.65197E+01 2.48719E+01 1.01629E+00
 -1      1142 1.77578E+01 2.34064E+01 8.97895E-01
 -1      1143 1.65957E+01 2.37134E+01 8.97895E-01
 -1      1144 5.53013E+00 1.41400E+01 2.50000E+00
 -1      1145 5.53013E+00 1.27700E+01 2.50000E+00
 -1      1146 1.95067E+01 2.03352E+01 1.23546E+00
 -1      1147 1.91453E+01 2.20246E+01 1.26000E+00
 -1      1148 3.16365E+00 1.45350E+01 2.50000E+00
 -1      1149 2.08176E+01 1.39448E+01 3.74162E+00
 -1      1150 3.16365E+00 1.03000E+01 2.50000E+00
 -1      1151 3.16365E+00 1.17850E+01 2.50000E+00
 -1      1152 1.79582E+00 1.10250E+01 1.20000E+00
 -1      1153 2.82042E+01 1.56150E+01 3.75000E+00
 -1      1154 9.07000E+00 1.51049E+00 1.20000E+00
 -1      1155 8.97641E+00 2.67299E+00 2.50000E+00
 -1      1156 8.45141E+00 1.16250E+00 3.70000E+00
 -1      1157 4.04141E+00 1.16250E+00 4.01049E+00
 -1      1158 3.16365E+00 1.31650E+01 2.50000E+00
 -1      1159 2.41750E+01 3.02099E+00 2.50000E+00
 -1      1160 1.86016E+01 6.21521E+00 7.65312E-01
 -1      1161 1.87167E+01 7.01059E+00 1.92533E+00
 -1      1162 1.75051E+01 6.55203E+00 1.16002E+00
 -1      1163 1.92973E+01 8.37313E+00 1.16002E+00
 -1      1164 1.31200E+01 1.45371E+01 2.50000E+00
 -1      1165 1.01586E+01 2.86770E+01 2.50000E+00
 -1      1166 2.51050E+01 1.51049E+00 2.50000E+00
 -1      1167 2.65850E+01 1.51049E+00 3.75000E+00
 -1      1168 1.91939E+01 2.42933E+01 3.03506E+00
 -1      1169 1.22486E+01 2.86770E+01 2.50000E+00
 -1      1170 1.36904E+01 2.02290E+01 1.28630E+00
 -1      1171 4.04141E+00 2.67299E+00 2.50000E+00
 -1      1172 5.53013E+00 2.14000E+01 2.50000E+00
 -1      1173 1.88447E+01 2.50243E+01 2.27129E+00
 -1      1174 1.62165E+01 6.34670E+00 3.66002E+00
 -1      1175 1.61014E+01 5.55131E+00 2.50000E+00
 -1      1176 1.63437E+01 5.07398E+00 3.52416E+00
 -1      1177 1.77474E+01 6.07469E+00 2.18418E+00
 -1      1178 1.76323E+01 5.27931E+00 1.02416E+00
 -1      1179 1.88371E+01 2.48786E+01 3.75500E+00
 -1      1180 1.36783E+00 1.35100E+01 2.50000E+00
 -1      1181 1.82273E+01 4.48214E+00 3.52416E+00
 -1      1182 1.84091E+01 1.93946E+01 1.23546E+00
 -1      1183 2.66300E+01 1.51049E+00 1.25000E+00
 -1      1184 4.94893E+00 2.56671E+01 2.50000E+00
 -1      1185 1.96323E+01 5.27931E+00 1.02416E+00
 -1      1186 7.95431E+00 2.17960E+01 2.50000E+00
 -1      1187 9.44033E+00 1.59928E+01 2.50000E+00
 -1      1188 9.44033E+00 1.73728E+01 2.50000E+00
 -1      1189 2.82042E+01 8.90500E+00 2.50000E+00
 -1      1190 1.46773E+01 1.88654E+01 3.78630E+00
 -1      1191 2.76950E+01 1.69525E+00 1.25000E+00
 -1      1192 1.17350E+01 1.51049E+00 1.25000E+00
 -1      1193 1.16864E+01 2.67299E+00 2.50000E+00
 -1      1194 1.32664E+01 2.67299E+00 2.50000E+00
 -1      1195 7.23365E+00 4.82799E+00 2.50000E+00
 -1      1196 9.63141E+00 4.04082E+00 2.50000E+00
 -1      1197 1.02864E+01 2.67299E+00 2.50000E+00
 -1      1198 2.85709E+01 1.74997E+01 3.67573E+00
 -1      1199 1.09864E+01 4.18349E+00 2.50000E+00
 -1      1200 2.67600E+01 3.20574E+00 2.50000E+00
 -1      1201 2.87600E+01 1.38000E+00 3.75000E+00
 -1      1202 1.74564E+01 2.67299E+00 2.50000E+00
 -1      1203 1.70437E+01 3.56348E+00 3.52416E+00
 -1      1204 1.86400E+01 3.59164E+00 2.50000E+00
 -1      1205 1.82873E+01 3.91148E+00 1.02416E+00
 -1      1206 8.54733E+00 8.25400E+00 2.50000E+00
 -1      1207 1.75500E+01 1.51049E+00 2.50000E+00
 -1      1208 2.56950E+01 3.02099E+00 2.50000E+00
 -1      1209 1.88607E+01 7.87782E+00 2.52565E+00
 -1      1210 2.51230E+01 1.90644E+01 2.04260E+00
 -1      1211 1.37114E+01 5.55131E+00 2.50000E+00
 -1      1212 1.26114E+01 4.04082E+00 2.50000E+00
 -1      1213 1.88447E+01 2.51302E+01 1.01629E+00
 -1      1214 1.88447E+01 2.60490E+01 2.26629E+00
 -1      1215 1.79881E+01 2.12371E+01 2.13336E+00
 -1      1216 1.61418E+01 2.48537E+01 3.51629E+00
 -1      1217 1.49064E+01 7.91779E+00 2.50000E+00
 -1      1218 1.36783E+00 1.21300E+01 2.50000E+00
 -1      1219 1.88371E+01 2.59032E+01 3.75000E+00
 -1      1220 1.76818E+01 2.58250E+01 1.01629E+00
 -1      1221 1.47586E+01 1.90204E+01 1.19662E+00
 -1      1222 1.65197E+01 2.61319E+01 1.01629E+00
 -1      1223 1.76750E+01 2.71814E+01 1.25000E+00
 -1      1224 1.55450E+01 2.86322E+01 1.25000E+00
 -1      1225 1.89207E+01 2.28412E+01 8.97895E-01
 -1      1226 1.88447E+01 2.39997E+01 1.01629E+00
 -1      1227 1.87786E+01 2.86770E+01 3.70000E+00
 -1      1228 1.83083E+01 9.05582E+00 3.86563E+00
 -1      1229 1.87786E+01 2.72262E+01 3.75000E+00
 -1      1230 1.58973E+01 3.91148E+00 1.02416E+00
 -1      1231 1.43664E+01 4.18349E+00 2.50000E+00
 -1      1232 7.61128E+00 1.50050E+01 2.50000E+00
 -1      1233 1.95994E+01 4.42144E+00 3.58620E+00
 -1      1234 2.05378E+01 8.90353E+00 1.36563E+00
 -1      1235 1.99572E+01 7.54100E+00 2.13094E+00
 -1      1236 1.32384E+01 2.36150E+01 2.50000E+00
 -1      1237 1.76233E+01 2.61767E+01 3.51629E+00
 -1      1238 1.64536E+01 2.73092E+01 2.50000E+00
 -1      1239 1.66486E+01 2.86770E+01 3.75000E+00
 -1      1240 1.63101E+01 8.91851E+00 1.16002E+00
 -1      1241 2.02944E+01 2.07011E+01 2.50068E+00
 -1      1242 1.78700E+01 2.85492E+01 2.50000E+00
 -3
    3C                           605                                     1
 -1       483    6    0    1
 -2        23       142        24        52       810       811       228       793       525       797
 -1       484    6    0    1
 -2       142        80        24        52       812       785       811       525       795       797
 -1       485    6    0    1
 -2       119       128       180       181       469       813       815       816       814       659
 -1       486    6    0    1
 -2        23       142        86        24       810       817       324       228       811       327
 -1       487    6    0    1
 -2       101       215       119       181       818       819       429       821       820       816
 -1       488    6    0    1
 -2       158       102        69       190       822       823       574       825       824       727
 -1       489    6    0    1
 -2       206       207       205       125       826       827       829       830       828       831
 -1       490    6    0    1
 -2       129       185       173       187       832       671       833       834       689       679
 -1       491    6    0    1
 -2        64        99        36        37       835       366       746       742       365       245
 -1       492    6    0    1
 -2       215       217       221       219       836       837       839       840       838       841
 -1       493    6    0    1
 -2       185       129       130       135       832       483       842       843       495       494
 -1       494    6    0    1
 -2        60        32        94        78       751       352       844       747       748       845
 -1       495    6    0    1
 -2       215       119       218       220       819       846       848       849       847       850
 -1       496    6    0    1
 -2       142        80        14        53       812       308       526       527       767       267
 -1       497    6    0    1
 -2        23       142       141        86       810       528       851       324       817       852
 -1       498    6    0    1
 -2       206       207       179       205       826       853       854       829       827       855
 -1       499    6    0    1
 -2       206       207       208       179       826       856       857       854       853       858
 -1       500    6    0    1
 -2        93       162        94       194       859       860       351       862       861       863
 -1       501    6    0    1
 -2       132       188       136       182       864       865       503       866       691       867
 -1       502    6    0    1
 -2       115       184       134       131       868       869       492       479       870       496
 -1       503    6    0    1
 -2       101       215       124       119       818       871       462       429       819       467
 -1       504    6    0    1
 -2       101       157       102        41       872       873       375       371       874       374
 -1       505    6    0    1
 -2       176       201       205       202       875       876       878       879       877       880
 -1       506    6    0    1
 -2       114        86       167       141       413       881       882       883       852       604
 -1       507    6    0    1
 -2       181       175       215       217       658       884       820       886       885       836
 -1       508    6    0    1
 -2        64        65       154        37       282       563       562       742       741       887
 -1       509    6    0    1
 -2        64        99       153        36       835       888       560       746       366       889
 -1       510    6    0    1
 -2       184       115       134       169       868       492       869       667       890       891
 -1       511    6    0    1
 -2       106       121       205       125       434       892       893       449       451       831
 -1       512    6    0    1
 -2       131       184       134       135       870       869       496       501       894       505
 -1       513    6    0    1
 -2       204       208       108       207       895       896       897       898       856       899
 -1       514    6    0    1
 -2       121       205       125       206       892       831       451       900       829       830
 -1       515    6    0    1
 -2       172       116       117       131       901       457       902       903       477       480
 -1       516    6    0    1
 -2       161       204       165       177       904       905       595       636       906       639
 -1       517    6    0    1
 -2       215       119       220       109       819       847       849       907       437       908
 -1       518    6    0    1
 -2        86        22        51        23       325       791       909       324       227       794
 -1       519    6    0    1
 -2       216       109       220       130       910       908       911       912       474       913
 -1       520    6    0    1
 -2       102       210       122       103       914       915       442       378       916       441
 -1       521    6    0    1
 -2       157       101       102       119       872       375       873       917       429       428
 -1       522    6    0    1
 -2       134       132       136       182       491       503       506       918       866       867
 -1       523    6    0    1
 -2        64        99       154       153       835       919       562       560       888       564
 -1       524    6    0    1
 -2        68        67        40       113       286       718       717       921       920       427
 -1       525    6    0    1
 -2        23       142        52       141       810       525       793       851       528       523
 -1       526    6    0    1
 -2       121       201       205       206       922       876       892       900       923       829
 -1       527    6    0    1
 -2        88       143        55        54       924       531       925       926       530       269
 -1       528    6    0    1
 -2       143        88        55        89       924       925       531       927       336       928
 -1       529    6    0    1
 -2       199       211       120       204       929       930       932       933       931       934
 -1       530    6    0    1
 -2       101       215       164       124       818       935       936       462       871       937
 -1       531    6    0    1
 -2        64        99        37       154       835       365       742       562       919       887
 -1       532    6    0    1
 -2       144       145       111        89       537       938       940       941       939       405
 -1       533    6    0    1
 -2       104       189       213       209       942       943       945       946       944       947
 -1       534    6    0    1
 -2        48        49       138       197       516       597       514       802       948       949
 -1       535    6    0    1
 -2       104       189        44       213       942       708       381       945       943       950
 -1       536    6    0    1
 -2       177       208       127       204       951       952       953       906       895       954
 -1       537    6    0    1
 -2       209       199         1        74       955       956       958       959       957       297
 -1       538    6    0    1
 -2        91        79        11        29       960       307       340       341       773       235
 -1       539    6    0    1
 -2       116       148        93        92       961       962       418       419       963       348
 -1       540    6    0    1
 -2       206       207       125       208       826       828       830       857       856       964
 -1       541    6    0    1
 -2       210       157       122       180       965       966       915       967       650       968
 -1       542    6    0    1
 -2       109       119       220       130       437       847       908       474       473       913
 -1       543    6    0    1
 -2       104       189        45        44       942       709       380       381       708       255
 -1       544    6    0    1
 -2       144       145       168       111       537       607       606       940       938       969
 -1       545    6    0    1
 -2       142        87       195        54       970       971       973       529       972       774
 -1       546    6    0    1
 -2        49        48        81       197       516       799       783       948       802       801
 -1       547    6    0    1
 -2       209        45         1       105       974       256       958       975       383       382
 -1       548    6    0    1
 -2        58       147        12        79       542       541       273       757       976       306
 -1       549    6    0    1
 -2        71        74         2       212       707       296       291       978       977       979
 -1       550    6    0    1
 -2       200        73       202       203       980       981       983       984       982       985
 -1       551    6    0    1
 -2        51        86       141       140       909       852       522       520       986       524
 -1       552    6    0    1
 -2       210       211       163       180       987       988       990       967       989       652
 -1       553    6    0    1
 -2       104       189       209        45       942       944       946       380       709       974
 -1       554    6    0    1
 -2       208       182       179       183       991       694       858       992       695       686
 -1       555    6    0    1
 -2       181       101       157       119       821       872       655       816       429       917
 -1       556    6    0    1
 -2       199        74       107         1       957       993       994       956       297       388
 -1       557    6    0    1
 -2       101       215       181       164       818       820       821       936       935       654
 -1       558    6    0    1
 -2       177       208       183       127       951       992       665       953       952       995
 -1       559    6    0    1
 -2       116       149        95        93       996       997       460       418       998       459
 -1       560    6    0    1
 -2        87        25       195        26       330       770       971       329       231       780
 -1       561    6    0    1
 -2       170       184       131       187       668       870       999       680       688      1000
 -1       562    6    0    1
 -2        67        39        40       113       726       249       718       920       409       427
 -1       563    6    0    1
 -2       166       201       110       206      1001      1002      1003      1004       923      1005
 -1       564    6    0    1
 -2        67       156        39       113       570      1006       726       920      1007       409
 -1       565    6    0    1
 -2       179       160       205       207       645      1008       855       853      1009       827
 -1       566    6    0    1
 -2       199       209         1       105       955       958       956      1010       975       382
 -1       567    6    0    1
 -2       201       200       203        82      1011       984      1013      1014      1012      1015
 -1       568    6    0    1
 -2       199       105         1       107      1010       382       956       994       398       388
 -1       569    6    0    1
 -2       208       179       165       183       858       647      1016       992       686       666
 -1       570    6    0    1
 -2       210       157       102       122       965       873       914       915       966       442
 -1       571    6    0    1
 -2       177       208       165       183       951      1016       639       665       992       666
 -1       572    6    0    1
 -2       177       208       204       165       951       895       906       639      1016       905
 -1       573    6    0    1
 -2       158       210       163       180      1017       990       653       651       967       652
 -1       574    6    0    1
 -2       124       100        99       164       448       369       463       937      1018      1019
 -1       575    6    0    1
 -2       208       182       133       136       991      1020      1021      1022       867       509
 -1       576    6    0    1
 -2       208       182       183       133       991       695       992      1021      1020      1023
 -1       577    6    0    1
 -2       211       210       163       212       987       990       988      1025      1024      1026
 -1       578    6    0    1
 -2        45       209         1        74       974       958       256       706       959       297
 -1       579    6    0    1
 -2        61        33        95       193       752       353      1027       753       756      1028
 -1       580    6    0    1
 -2       162        59        94       194       584      1029       860       861       763       863
 -1       581    6    0    1
 -2       153       154       221        99       564      1030      1031       888       919      1032
 -1       582    6    0    1
 -2        60        59        10        78       547       275       276       747       759       304
 -1       583    6    0    1
 -2       199       210       209       105      1033      1034       955      1010      1035       975
 -1       584    6    0    1
 -2       208       133       127       108      1021       489       952       896       488       466
 -1       585    6    0    1
 -2       191        63       152        98       738       557      1037      1038      1036      1039
 -1       586    6    0    1
 -2        61        60       193       149       277       754       753       549       548      1040
 -1       587    6    0    1
 -2       110       166       140       139      1003       633      1041      1042       600       521
 -1       588    6    0    1
 -2       210       157       158       102       965       576      1017       914       873       822
 -1       589    6    0    1
 -2       181       101       164       157       821       936       654       655       872       592
 -1       590    6    0    1
 -2        58       147        79        92       542       976       757      1044      1043      1045
 -1       591    6    0    1
 -2       215       220       218       219       849       850       848       840      1046      1047
 -1       592    6    0    1
 -2       120       210       122       211      1048       915       443       930       987      1049
 -1       593    6    0    1
 -2       201       106       121       205      1050       434       922       876       893       892
 -1       594    6    0    1
 -2       199       210       212       209      1033      1024      1051       955      1034      1052
 -1       595    6    0    1
 -2       199       210       211       212      1033       987       929      1051      1024      1025
 -1       596    6    0    1
 -2       120       210       105       122      1048      1035       431       443       915       440
 -1       597    6    0    1
 -2       156        76        67        39      1053       716       570      1006       713       726
 -1       598    6    0    1
 -2       128       186       181       130      1054       673       814       498      1055      1056
 -1       599    6    0    1
 -2       107       204       127       108      1057       954       464       393       897       466
 -1       600    6    0    1
 -2       143       114        87        88      1058       412      1059       924       411       333
 -1       601    6    0    1
 -2        62        77       151         8       728      1060       554       279       302       553
 -1       602    6    0    1
 -2       110       139       140        84      1042       521      1041       403      1061      1062
 -1       603    6    0    1
 -2       120       210       199       105      1048      1033       932       431      1035      1010
 -1       604    6    0    1
 -2         2        74       161       212       296      1063       582       979       977      1064
 -1       605    6    0    1
 -2       121       132       126       206       499       486       455       900      1065      1066
 -1       606    6    0    1
 -2       212         2       163       161       979       586      1026      1064       582       587
 -1       607    6    0    1
 -2       159         2       163       212       579       586       588      1067       979      1026
 -1       608    6    0    1
 -2       159       210       213       212      1068      1069      1070      1067      1024      1071
 -1       609    6    0    1
 -2        54        88        26        27       926       332       781       776       331       232
 -1       610    6    0    1
 -2        55        89        27        28       928       335       775       778       334       233
 -1       611    6    0    1
 -2       210       157       180       158       965       650       967      1017       576       651
 -1       612    6    0    1
 -2       159       210       158       213      1068      1017       660      1070      1069      1072
 -1       613    6    0    1
 -2        59        58       194       148       274       764       763       545       544      1073
 -1       614    6    0    1
 -2       140       167       126        85       603      1074      1076      1077      1075       453
 -1       615    6    0    1
 -2       186       185       135       183       683       843      1078       687       696      1079
 -1       616    6    0    1
 -2        24        25        13       195       328       230       229      1080       770       769
 -1       617    6    0    1
 -2       144       111       168       112       940       969       606      1081       408      1082
 -1       618    6    0    1
 -2       210       103       213       104       916      1083      1069      1084       425       945
 -1       619    6    0    1
 -2       178       144       168       112       638       606       657      1085      1081      1082
 -1       620    6    0    1
 -2       162        59       194       148       584       763       861       640       545      1073
 -1       621    6    0    1
 -2       159       210       163       158      1068       990       588       660      1017       653
 -1       622    6    0    1
 -2        74        72       161       204       701       583      1063      1087      1086       904
 -1       623    6    0    1
 -2       116       171       149       148      1088       641       996       961       615       681
 -1       624    6    0    1
 -2       159       210       212       163      1068      1024      1067       588       990      1026
 -1       625    6    0    1
 -2        74        46       107         1       702       387       993       297       258       388
 -1       626    6    0    1
 -2        75       213        70       190      1089      1090       714       722      1091       723
 -1       627    6    0    1
 -2       120       210       211       199      1048       987       930       932      1033       929
 -1       628    6    0    1
 -2       221       154       153       175      1030       564      1031      1092       627       626
 -1       629    6    0    1
 -2       215       124       119        99       871       467       819      1093       463       436
 -1       630    6    0    1
 -2       185       186       135       130       683      1078       843       842      1055       494
 -1       631    6    0    1
 -2       201       106       202       200      1050      1094       877      1011      1095       983
 -1       632    6    0    1
 -2       146       170       123       147       611      1096      1097       543       612      1098
 -1       633    6    0    1
 -2       170       171       123       147       616      1099      1096       612       614      1098
 -1       634    6    0    1
 -2       184       129       131       187      1100       497       870       688       834      1000
 -1       635    6    0    1
 -2        90        89        56        28       339      1101      1102       338       334       777
 -1       636    6    0    1
 -2       212        74       161       204       977      1063      1064      1103      1087       904
 -1       637    6    0    1
 -2       213       158        70       190      1072       575      1090      1091       825       723
 -1       638    6    0    1
 -2       177       211       163       204      1104       988       635       906       931      1105
 -1       639    6    0    1
 -2       211       212       163       204      1025      1026       988       931      1103      1105
 -1       640    6    0    1
 -2        73        17       200       106       295      1106       980      1107       385      1095
 -1       641    6    0    1
 -2       186       128       135       130      1054       500      1078      1055       498       494
 -1       642    6    0    1
 -2       177       161       204       163       636       904       906       635       587      1105
 -1       643    6    0    1
 -2       161       212       204       163      1064      1103       904       587      1026      1105
 -1       644    6    0    1
 -2       221       154       215        99      1030      1108       839      1032       919      1093
 -1       645    6    0    1
 -2       201       202       106       205       877      1094      1050       876       880       893
 -1       646    6    0    1
 -2        50        21        84       196       796       318      1109       790       788      1110
 -1       647    6    0    1
 -2       215       109       220       219       907       908       849       840      1111      1046
 -1       648    6    0    1
 -2        58        30       194        92       761       765       764      1044       343      1112
 -1       649    6    0    1
 -2        88        87        54        26       333       972       926       332       329       781
 -1       650    6    0    1
 -2       179       176       206       205       646      1113       854       855       878       829
 -1       651    6    0    1
 -2       217       219       214       221       838      1114      1115       837       841      1116
 -1       652    6    0    1
 -2        70        71        75         4       577       704       714       289       290       298
 -1       653    6    0    1
 -2       215       154       221       175      1108      1030       839       884       627      1092
 -1       654    6    0    1
 -2       188       178       126       167       690      1117      1118       685       656      1074
 -1       655    6    0    1
 -2         7        77        96        97       303      1119       356       360      1120       361
 -1       656    6    0    1
 -2       158       102       103       210       822       378      1121      1017       914       916
 -1       657    6    0    1
 -2        73       207        46       106      1122      1123       700      1107      1124       386
 -1       658    6    0    1
 -2        70        75        71       213       714       704       577      1090      1089      1125
 -1       659    6    0    1
 -2        67       164       113        68       590      1126       920       286       591       921
 -1       660    6    0    1
 -2       211       199       212       204       929      1051      1025       931       933      1103
 -1       661    6    0    1
 -2        46       204       107       108      1127      1057       387       392       897       393
 -1       662    6    0    1
 -2        60        94        59        78       844      1029       547       747       845       759
 -1       663    6    0    1
 -2        67       164       156       113       590       649       570       920      1126      1007
 -1       664    6    0    1
 -2       149        95        61       150       997      1027       549       552      1128       550
 -1       665    6    0    1
 -2        77         7       191        97       303       730       729      1120       360      1129
 -1       666    6    0    1
 -2       129       187       173       117       834       679       833       472      1130      1131
 -1       667    6    0    1
 -2       215       154       164        99      1108       644       935      1093       919      1019
 -1       668    6    0    1
 -2       210       211       180       122       987       989       967       915      1049       968
 -1       669    6    0    1
 -2       171       116       147       148      1088      1132       614       615       961       546
 -1       670    6    0    1
 -2        60        59        94       162       547      1029       844       585       584       860
 -1       671    6    0    1
 -2       170       184       115       131       668       868      1133       999       870       479
 -1       672    6    0    1
 -2       149        61        95       193       549      1027       997      1040       753      1028
 -1       673    6    0    1
 -2        58       148        92       194       544       963      1044       764      1073      1112
 -1       674    6    0    1
 -2       220       109       216       219       908       910       911      1046      1111      1134
 -1       675    6    0    1
 -2       160       176       205       202       629       878      1008      1135       879       880
 -1       676    6    0    1
 -2       188       132       126       178       864       486      1118       690      1136      1117
 -1       677    6    0    1
 -2        30        31       194        93       237       766       765       347       346       862
 -1       678    6    0    1
 -2       211       186       127       177      1137      1138      1139      1104       675       953
 -1       679    6    0    1
 -2       202       203       137       166       985      1140      1142      1143      1141       601
 -1       680    6    0    1
 -2       115       145       169       146      1144       608       890      1145       540       609
 -1       681    6    0    1
 -2        73       207       160        72      1122      1009      1147       699      1146       580
 -1       682    6    0    1
 -2       103       210       105       104       916      1035       432       425      1084       384
 -1       683    6    0    1
 -2        89       145       111        90       939       938       405       339      1148       404
 -1       684    6    0    1
 -2       211       186       128       127      1137      1054      1149      1139      1138       493
 -1       685    6    0    1
 -2       146       147        91        79       543      1150      1151      1152       976       960
 -1       686    6    0    1
 -2       147        91        92       123      1150       345      1043      1098       446       445
 -1       687    6    0    1
 -2       128       211       120       122      1149       930       470       468      1049       443
 -1       688    6    0    1
 -2       102       103        42       190       378       377       373       824      1153       724
 -1       689    6    0    1
 -2       170       115       169       146      1133       890       613       611      1145       609
 -1       690    6    0    1
 -2       176       202       137       166       879      1142       630       631      1143       601
 -1       691    6    0    1
 -2       211       186       180       128      1137       674       989      1149      1054       813
 -1       692    6    0    1
 -2       164       154       215       175       644      1108       935       643       627       884
 -1       693    6    0    1
 -2        77       150        95        96      1154      1128      1156      1119      1155       358
 -1       694    6    0    1
 -2        94        32       193        95       352       755      1157       355       354      1028
 -1       695    6    0    1
 -2       211       186       177       180      1137       675      1104       989       674       663
 -1       696    6    0    1
 -2       202       201       203       166       877      1013       985      1143      1001      1141
 -1       697    6    0    1
 -2       116       147        92       123      1132      1043       419       444      1098       445
 -1       698    6    0    1
 -2        89       145        90        56       939      1148       339      1101       535      1102
 -1       699    6    0    1
 -2        99       119       215       109       436       819      1093       400       437       907
 -1       700    6    0    1
 -2       115       145       146        90      1144       540      1145       416      1148      1158
 -1       701    6    0    1
 -2       157       119       180       181       917       815       650       655       816       659
 -1       702    6    0    1
 -2       176       201       202       166       875       877       879       631      1001      1143
 -1       703    6    0    1
 -2       162       148       194        93       640      1073       861       859       962       862
 -1       704    6    0    1
 -2        61        33        77        95       752       750       749      1027       353      1156
 -1       705    6    0    1
 -2       100       154        99       164      1159       919       369      1018       644      1019
 -1       706    6    0    1
 -2       174       217       181       216      1160       886       664      1162      1161      1163
 -1       707    6    0    1
 -2       135       184       182       183       894       669      1164      1079       698       695
 -1       708    6    0    1
 -2        34        35       191        98       243       744       731       363       362      1038
 -1       709    6    0    1
 -2        86        22        85        51       325       321       326       909       791      1165
 -1       710    6    0    1
 -2       147        91        79        92      1150       960       976      1043       345      1045
 -1       711    6    0    1
 -2       110       140        85        84      1041      1077       439       403      1062       323
 -1       712    6    0    1
 -2       100        65       192        37      1166       743      1167       368       741       745
 -1       713    6    0    1
 -2       210       158       213       103      1017      1072      1069       916      1121      1083
 -1       714    6    0    1
 -2        74       199       204       212       957       933      1087       977      1051      1103
 -1       715    6    0    1
 -2       199       209       212        74       955      1052      1051       957       959       977
 -1       716    6    0    1
 -2       198       200        73        17      1168       980       808       805      1106       295
 -1       717    6    0    1
 -2       211       128       180       122      1149       813       989      1049       468       968
 -1       718    6    0    1
 -2       140        50        85        84       519      1169      1077      1062      1109       323
 -1       719    6    0    1
 -2       176       188       206       166       692      1170      1113       631       684      1004
 -1       720    6    0    1
 -2       149        60        94       162       548       844      1171       617       585       860
 -1       721    6    0    1
 -2       208       108       207       125       896       899       856       964       450       828
 -1       722    6    0    1
 -2       174       217       175       181      1160       885       628       664       886       658
 -1       723    6    0    1
 -2        74        46       204       107       702      1127      1087       993       387      1057
 -1       724    6    0    1
 -2       144       143       112       178       534      1172      1081       638       637      1085
 -1       725    6    0    1
 -2       198       200       203        73      1168       984      1173       808       980       982
 -1       726    6    0    1
 -2       216       118       174       214      1174      1175      1162      1177      1176      1178
 -1       727    6    0    1
 -2        48        47       197       138       260       804       802       514       513       949
 -1       728    6    0    1
 -2       187       172       173       117       678       622       679      1130       902      1131
 -1       729    6    0    1
 -2       149        94        60       193      1171       844       548      1040      1157       754
 -1       730    6    0    1
 -2       143       144       112        89       534      1081      1172       927       941       406
 -1       731    6    0    1
 -2       142        87        24       195       970       389       811       973       971      1080
 -1       732    6    0    1
 -2        59        31        94       194       762       350      1029       763       766       863
 -1       733    6    0    1
 -2       128       130       181       119       498      1056       814       469       473       816
 -1       734    6    0    1
 -2       198       200        82       203      1168      1012      1179      1173       984      1015
 -1       735    6    0    1
 -2       216       118       109       130      1174       476       910       912       482       474
 -1       736    6    0    1
 -2        90        56        57        29      1102       271      1180       337       782       779
 -1       737    6    0    1
 -2       109       118       216       214       476      1174       910      1181      1176      1177
 -1       738    6    0    1
 -2       159         2       212        71       579       979      1067       578       291       978
 -1       739    6    0    1
 -2       204       208       207       165       895       856       898       905      1016      1182
 -1       740    6    0    1
 -2       192        65       155        66       743       565      1183       736       283       566
 -1       741    6    0    1
 -2       133       135       136       182       508       507       509      1020      1164       867
 -1       742    6    0    1
 -2       114       142        87        86      1184       970       412       413       817       391
 -1       743    6    0    1
 -2        88       143       112        89       924      1172       407       336       927       406
 -1       744    6    0    1
 -2       174       217       214       175      1160      1115      1178       628       885      1185
 -1       745    6    0    1
 -2        45       209        74       189       974       959       706       709       944       711
 -1       746    6    0    1
 -2       114       143       112        88      1058      1172       414       411       924       407
 -1       747    6    0    1
 -2       143       178       167       112       637       656       632      1172      1085      1186
 -1       748    6    0    1
 -2       132       134       111       168       491       490       484      1188      1187       969
 -1       749    6    0    1
 -2        87       143        88        54      1059       924       333       972       530       926
 -1       750    6    0    1
 -2        48        16        49        81       261       262       516       799       310       783
 -1       751    6    0    1
 -2       101        68        41        40      1189       720       371       372       717       250
 -1       752    6    0    1
 -2       101       164        68       113       936       591      1189       426      1126       921
 -1       753    6    0    1
 -2       114       143       167       112      1058       632       882       414      1172      1186
 -1       754    6    0    1
 -2       188       132       136       206       864       503       865      1170      1065      1190
 -1       755    6    0    1
 -2       167       178       126       112       656      1117      1074      1186      1085       481
 -1       756    6    0    1
 -2       185       184       135       183       697       894       843       696       698      1079
 -1       757    6    0    1
 -2       156       192       155        66      1191      1183       571       568       736       566
 -1       758    6    0    1
 -2       201       176       206       166       875      1113       923      1001       631      1004
 -1       759    6    0    1
 -2       184       185       129       187       697       832      1100       688       689       834
 -1       760    6    0    1
 -2       198       200        17        82      1168      1106       805      1179      1012       313
 -1       761    6    0    1
 -2       114       142       143        87      1184       602      1058       412       970      1059
 -1       762    6    0    1
 -2       191       151        97       152      1192      1193      1129      1037       558      1194
 -1       763    6    0    1
 -2       149       116        95       150       996       460       997       552      1195      1128
 -1       764    6    0    1
 -2        72       204       207       165      1086       898      1146       593       905      1182
 -1       765    6    0    1
 -2       114       142       141       143      1184       528       883      1058       602       605
 -1       766    6    0    1
 -2       172       116        96       117       901       458      1196       902       457       421
 -1       767    6    0    1
 -2       114       142        86       141      1184       817       413       883       528       852
 -1       768    6    0    1
 -2       150       172        96       151       618      1196      1155       555       619      1197
 -1       769    6    0    1
 -2       135       127       128       186       502       493       500      1078      1138      1054
 -1       770    6    0    1
 -2        44       104       213        43       381       945       950       379       397      1198
 -1       771    6    0    1
 -2       172       117        96       151       902       421      1196       619      1199      1197
 -1       772    6    0    1
 -2       156       100       192        39      1200      1167      1191      1006       390      1201
 -1       773    6    0    1
 -2       153        98       109       214      1202       475      1204      1205      1203      1181
 -1       774    6    0    1
 -2       210       209       213       212      1034       947      1069      1024      1052      1071
 -1       775    6    0    1
 -2        43       213       103       104      1198      1083       376       397       945       425
 -1       776    6    0    1
 -2       156        76       192        66      1053       735      1191       568       733       736
 -1       777    6    0    1
 -2       215       164       124        99       935       937       871      1093      1019       463
 -1       778    6    0    1
 -2       133       135       182       183       508      1164      1020      1023      1079       695
 -1       779    6    0    1
 -2       121       201       110        82       922      1002       435       433      1014       402
 -1       780    6    0    1
 -2        89       144       112       111       941      1081       406       405       940       408
 -1       781    6    0    1
 -2       106       201       121        82      1050       922       434       399      1014       433
 -1       782    6    0    1
 -2       201       176       205       206       875       878       876       923      1113       829
 -1       783    6    0    1
 -2       182       178       168       132       682       657       661       866      1136      1188
 -1       784    6    0    1
 -2        89       144        56        55       941       533      1101       928       532       270
 -1       785    6    0    1
 -2       170       171       187       131       616       677       680       999      1206      1000
 -1       786    6    0    1
 -2       134       135       182       136       505      1164       918       506       507       867
 -1       787    6    0    1
 -2       171       172       187       131       670       678       677      1206       903      1000
 -1       788    6    0    1
 -2       172       171       116       131       670      1088       901       903      1206       477
 -1       789    6    0    1
 -2       102       190        42        69       824       724       373       823       727       725
 -1       790    6    0    1
 -2       140       110        85       126      1041       439      1077      1076       454       453
 -1       791    6    0    1
 -2       187       172       117       131       678       902      1130      1000       903       480
 -1       792    6    0    1
 -2       129       187       117       131       834      1130       472       497      1000       480
 -1       793    6    0    1
 -2       157       102        41        69       873       374       874       573       823       719
 -1       794    6    0    1
 -2       103       210       122       105       916       915       441       432      1035       440
 -1       795    6    0    1
 -2       157       101       164        68       872       936       592       572      1189       591
 -1       796    6    0    1
 -2        75       213       190        43      1089      1091       722       715      1198       721
 -1       797    6    0    1
 -2        76       156       192        39      1053      1191       735       713      1006      1201
 -1       798    6    0    1
 -2       179       208       165       207       858      1016       647       853       856      1182
 -1       799    6    0    1
 -2        63       152        98       153       557      1039      1036       559       561      1202
 -1       800    6    0    1
 -2       185       184       129       135       697      1100       832       843       894       495
 -1       801    6    0    1
 -2        35        63        98       153       740      1036       362      1207       559      1202
 -1       802    6    0    1
 -2       158       103       190       213      1121      1153       825      1072      1083      1091
 -1       803    6    0    1
 -2        65       100       155       154      1166      1208       565       563      1159       567
 -1       804    6    0    1
 -2       121       136       206       125       504      1190       900       451       510       830
 -1       805    6    0    1
 -2       192         5        39        38       734       248      1201       737       247       370
 -1       806    6    0    1
 -2        77        62       151       191       728       554      1060       729       732      1192
 -1       807    6    0    1
 -2       149        94       193        95      1171      1157      1040       997       355      1028
 -1       808    6    0    1
 -2       121       136       132       206       504       503       499       900      1190      1065
 -1       809    6    0    1
 -2        77        33        96        95       750       357      1119      1156       353       358
 -1       810    6    0    1
 -2       172       173       117       151       622      1131       902       619       620      1199
 -1       811    6    0    1
 -2       148       162       149        93       640       617       681       962       859       998
 -1       812    6    0    1
 -2       101        68        40       113      1189       717       372       426       921       427
 -1       813    6    0    1
 -2       219       216       220       218      1134       911      1046      1047      1209       850
 -1       814    6    0    1
 -2       213       189        71       212       943       712      1125      1071      1210       978
 -1       815    6    0    1
 -2       145       144        56        89       537       533       535       939       941      1101
 -1       816    6    0    1
 -2         3        44        75        43       254       705       299       253       379       715
 -1       817    6    0    1
 -2       174       217       216       214      1160      1161      1162      1178      1115      1177
 -1       818    6    0    1
 -2       175       174       153       214       628       624       626      1185      1178      1205
 -1       819    6    0    1
 -2        51        23        52       141       794       793       265       522       851       523
 -1       820    6    0    1
 -2       158       157        69       102       576       573       574       822       873       823
 -1       821    6    0    1
 -2       173       129       117       118       833       472      1131      1211       471       424
 -1       822    6    0    1
 -2        32        60        94       193       751       844       352       755       754      1157
 -1       823    6    0    1
 -2        43       103       213       190       376      1083      1198       721      1153      1091
 -1       824    6    0    1
 -2        63        62       191       152       280       732       738       557       556      1037
 -1       825    6    0    1
 -2       211       177       163       180      1104       635       988       989       663       652
 -1       826    6    0    1
 -2       146       145        57        90       540       536       538      1158      1148      1180
 -1       827    6    0    1
 -2       200       201       203       202      1011      1013       984       983       877       985
 -1       828    6    0    1
 -2        51        86        23       141       909       324       794       522       852       851
 -1       829    6    0    1
 -2        79       146        12        57      1152       539       306       772       538       272
 -1       830    6    0    1
 -2       182       178       132       188       682      1136       866       691       690       864
 -1       831    6    0    1
 -2       117       173        97       151      1131      1212       420      1199       620      1193
 -1       832    6    0    1
 -2        92       148        93       194       963       962       348      1112      1073       862
 -1       833    6    0    1
 -2       128       119       180       122       469       815       813       468       452       968
 -1       834    6    0    1
 -2       112       168       132       111      1082      1188       485       408       969       484
 -1       835    6    0    1
 -2       203       198        47       197      1173       809      1213      1214       807       804
 -1       836    6    0    1
 -2       191        77        97       151       729      1120      1129      1192      1060      1193
 -1       837    6    0    1
 -2       207       202       106        73      1215      1094      1124      1122       981      1107
 -1       838    6    0    1
 -2        32        33       193        95       240       756       755       354       353      1028
 -1       839    6    0    1
 -2       190       158        70        69       825       575       723       727       574       288
 -1       840    6    0    1
 -2       203       198        73        47      1173       808       982      1213       809       798
 -1       841    6    0    1
 -2        59        31        78        94       762       760       759      1029       350       845
 -1       842    6    0    1
 -2       159       213        71       212      1070      1125       578      1067      1071       978
 -1       843    6    0    1
 -2       210       209       105       104      1034       975      1035      1084       946       384
 -1       844    6    0    1
 -2        78        32        94         9       748       352       845       305       239       349
 -1       845    6    0    1
 -2        31        78        94         9       760       845       350       238       305       349
 -1       846    6    0    1
 -2       215       164       175       181       935       643       884       820       654       658
 -1       847    6    0    1
 -2       207       202       205       106      1215       880       827      1124      1094       893
 -1       848    6    0    1
 -2        82       201       110       203      1014      1002       402      1015      1013      1216
 -1       849    6    0    1
 -2        92        91        79        11       345       960      1045       344       340       307
 -1       850    6    0    1
 -2       100       192        39        38      1167      1201       390       367       737       370
 -1       851    6    0    1
 -2       147       146        12        79       543       539       541       976      1152       306
 -1       852    6    0    1
 -2        35        64       153        36       739       560      1207       244       746       889
 -1       853    6    0    1
 -2       185       129       118       130       832       471      1217       842       483       482
 -1       854    6    0    1
 -2        61        77       150        95       749      1154       550      1027      1156      1128
 -1       855    6    0    1
 -2        91        90        57        29       342      1180      1218       341       337       779
 -1       856    6    0    1
 -2        65       100       192       155      1166      1167       743       565      1208      1183
 -1       857    6    0    1
 -2       112       132       168       178       485      1188      1082      1085      1136       657
 -1       858    6    0    1
 -2       186       185       181       130       683       676       673      1055       842      1056
 -1       859    6    0    1
 -2       142       143        87        54       602      1059       970       529       530       972
 -1       860    6    0    1
 -2       203       198       197        82      1173       807      1214      1015      1179      1219
 -1       861    6    0    1
 -2       120       107       204       127       430      1057       934       465       464       954
 -1       862    6    0    1
 -2       184       134       182       169       869       918       669       667       891       662
 -1       863    6    0    1
 -2       158        71       213        70       589      1125      1072       575       577      1090
 -1       864    6    0    1
 -2       147       116        92       148      1132       419      1043       546       961       963
 -1       865    6    0    1
 -2       114       143       141       167      1058       605       883       882       632       604
 -1       866    6    0    1
 -2       158        71       159       213       589       578       660      1072      1125      1070
 -1       867    6    0    1
 -2       137       203       138       166      1140      1220       515       601      1141       599
 -1       868    6    0    1
 -2        80       142       195        53       812       973       768       767       527       771
 -1       869    6    0    1
 -2       146        91        57        79      1151      1218       538      1152       960       772
 -1       870    6    0    1
 -2       171       170       123       131       616      1096      1099      1206       999       478
 -1       871    6    0    1
 -2        90       145        57        56      1148       536      1180      1102       535       271
 -1       872    6    0    1
 -2       173       117        97       118      1131       420      1212      1211       424       423
 -1       873    6    0    1
 -2        80        24        13       195       785       229       309       768      1080       769
 -1       874    6    0    1
 -2       173       185       118       174       671      1217      1211       625       672      1175
 -1       875    6    0    1
 -2       129       185       118       173       832      1217       471       833       671      1211
 -1       876    6    0    1
 -2       209       210       213       104      1034      1069       947       946      1084       945
 -1       877    6    0    1
 -2        44        75       213       189       705      1089       950       708       710       943
 -1       878    6    0    1
 -2        45       209       104       105       974       946       380       383       975       384
 -1       879    6    0    1
 -2       188       208       136       182      1221      1022       865       691       991       867
 -1       880    6    0    1
 -2       138       203       139       166      1220      1222       598       599      1141       600
 -1       881    6    0    1
 -2        80       142        14        52       812       526       308       795       525       266
 -1       882    6    0    1
 -2       162       149        93        94       617       998       859       860      1171       351
 -1       883    6    0    1
 -2       139       203       138       197      1222      1220       598      1223      1214       949
 -1       884    6    0    1
 -2       144       143        55        89       534       531       532       941       927       928
 -1       885    6    0    1
 -2        86       142        87        24       817       970       391       327       811       389
 -1       886    6    0    1
 -2       115       146        91        90      1145      1151       415       416      1158       342
 -1       887    6    0    1
 -2        37       100       154        99       368      1159       887       365       369       919
 -1       888    6    0    1
 -2        24        87        25       195       389       330       328      1080       971       770
 -1       889    6    0    1
 -2       158       102       190       103       822       824       825      1121       378      1153
 -1       890    6    0    1
 -2       103       190        43        42      1153       721       376       377       724       252
 -1       891    6    0    1
 -2        80       142        24       195       812       811       785       768       973      1080
 -1       892    6    0    1
 -2       139       203       110       166      1222      1216      1042       600      1141      1003
 -1       893    6    0    1
 -2       157       101        68        41       872      1189       572       874       371       720
 -1       894    6    0    1
 -2       100        37       192        38       368       745      1167       367       246       737
 -1       895    6    0    1
 -2        50       139        84       140       518      1061      1109       519       521      1062
 -1       896    6    0    1
 -2       151        77        97        96      1060      1120      1193      1197      1119       361
 -1       897    6    0    1
 -2       139        50        84       196       518      1109      1061      1224       790      1110
 -1       898    6    0    1
 -2       203       202       137        18       985      1142      1140      1226      1225       511
 -1       899    6    0    1
 -2       188       208       206       136      1221       857      1170       865      1022      1190
 -1       900    6    0    1
 -2        71        74       212       189       707       977       978       712       711      1210
 -1       901    6    0    1
 -2       160       179       165       207       645       647       594      1009       853      1182
 -1       902    6    0    1
 -2       188       208       179       206      1221       858       693      1170       857       854
 -1       903    6    0    1
 -2        81        20        83        15       784       317      1227       311       224       314
 -1       904    6    0    1
 -2       171       116       123       147      1088       444      1099       614      1132      1098
 -1       905    6    0    1
 -2        77         8       150       151       302       551      1154      1060       553       555
 -1       906    6    0    1
 -2       145       115       111        90      1144       417       938      1148       416       404
 -1       907    6    0    1
 -2       188       176       206       179       692      1113      1170       693       646       854
 -1       908    6    0    1
 -2       188       208       182       179      1221       991       691       693       858       694
 -1       909    6    0    1
 -2       130       218       119       220      1228       846       473       913       850       847
 -1       910    6    0    1
 -2        20        21       196        84       225       788       787       319       318      1110
 -1       911    6    0    1
 -2       199       105       107       120      1010       398       994       932       431       430
 -1       912    6    0    1
 -2        19        82        83       197       312       316       315       803      1219      1229
 -1       913    6    0    1
 -2       106       205       207       125       893       827      1124       449       831       828
 -1       914    6    0    1
 -2       214       152       118       174      1230      1231      1176      1178       623      1175
 -1       915    6    0    1
 -2        79        91        57        29       960      1218       772       773       341       779
 -1       916    6    0    1
 -2       114       167       126       112       882      1074       456       414      1186       481
 -1       917    6    0    1
 -2       111       134       169       168       490       891      1232       969      1187       610
 -1       918    6    0    1
 -2       109        99       221       215       400      1032      1233       907      1093       839
 -1       919    6    0    1
 -2       208       136       125       206      1022       510       964       857      1190       830
 -1       920    6    0    1
 -2       214       152        98       118      1230      1039      1203      1176      1231       422
 -1       921    6    0    1
 -2        30        92        79        11       343      1045       758       236       344       307
 -1       922    6    0    1
 -2        53       142       195        54       527       973       771       268       529       774
 -1       923    6    0    1
 -2       102        69        42        41       823       725       373       374       719       251
 -1       924    6    0    1
 -2       214       152       153        98      1230       561      1205      1203      1039      1202
 -1       925    6    0    1
 -2       130       218       181       119      1228      1234      1056       473       846       816
 -1       926    6    0    1
 -2       207       202       160       205      1215      1135      1009       827       880      1008
 -1       927    6    0    1
 -2       209       189       213       212       944       943       947      1052      1210      1071
 -1       928    6    0    1
 -2       209        74       189       212       959       711       944      1052       977      1210
 -1       929    6    0    1
 -2       215       218       217       219       848      1235       836       840      1047       838
 -1       930    6    0    1
 -2       204       208       127       108       895       952       954       897       896       466
 -1       931    6    0    1
 -2       214       152       174       153      1230       623      1178      1205       561       624
 -1       932    6    0    1
 -2        35        63       191        98       740       738       744       362      1036      1038
 -1       933    6    0    1
 -2       130       218       216       181      1228      1209       912      1056      1234      1163
 -1       934    6    0    1
 -2       207       202        73       160      1215       981      1122      1009      1135      1147
 -1       935    6    0    1
 -2       188       126       166       167      1118      1236       684       685      1074       634
 -1       936    6    0    1
 -2       150        77       151        96      1154      1060       555      1155      1119      1197
 -1       937    6    0    1
 -2       208       133       108       125      1021       488       896       964       487       450
 -1       938    6    0    1
 -2        89        88        55        27       336       925       928       335       331       775
 -1       939    6    0    1
 -2       178       132       126       112      1136       486      1117      1085       485       481
 -1       940    6    0    1
 -2         2        72       161        74       293       583       582       296       701      1063
 -1       941    6    0    1
 -2       199        74       204       107       957      1087       933       994       993      1057
 -1       942    6    0    1
 -2       130       218       220       216      1228       850       913       912      1209       911
 -1       943    6    0    1
 -2        89        55        56        28       928       270      1101       334       778       777
 -1       944    6    0    1
 -2       188       166       126       206       684      1236      1118      1170      1004      1066
 -1       945    6    0    1
 -2        88        54        55        27       926       269       925       331       776       775
 -1       946    6    0    1
 -2       172       171       150       116       670       642       618       901      1088      1195
 -1       947    6    0    1
 -2        83       203       139       197      1237      1222      1238      1229      1214      1223
 -1       948    6    0    1
 -2       221       175       214       217      1092      1185      1116       837       885      1115
 -1       949    6    0    1
 -2       176       160       137       202       629       596       630       879      1135      1142
 -1       950    6    0    1
 -2        56        90        28        29      1102       338       777       782       337       234
 -1       951    6    0    1
 -2       139        83        84       110      1238       320      1061      1042       401       403
 -1       952    6    0    1
 -2        83       203       110       139      1237      1216       401      1238      1222      1042
 -1       953    6    0    1
 -2       113       100       124       164       410       448       447      1126      1018       937
 -1       954    6    0    1
 -2       215       175       221       217       884      1092       839       836       885       837
 -1       955    6    0    1
 -2       134       184       182       135       869       669       918       505       894      1164
 -1       956    6    0    1
 -2       166       110       126       206      1003       454      1236      1004      1005      1066
 -1       957    6    0    1
 -2       102       157       119       122       873       917       428       442       966       452
 -1       958    6    0    1
 -2        83       203        82       110      1237      1015       316       401      1216       402
 -1       959    6    0    1
 -2        33        77        96         7       750      1119       357       241       303       356
 -1       960    6    0    1
 -2        83       203       197        82      1237      1214      1229       316      1015      1219
 -1       961    6    0    1
 -2       139        83       196        84      1238      1239      1224      1061       320      1110
 -1       962    6    0    1
 -2       120       199       204       107       932       933       934       430       994      1057
 -1       963    6    0    1
 -2       216       185       181       174      1240       676      1163      1162       672       664
 -1       964    6    0    1
 -2        73       204       207        72      1241       898      1122       699      1086      1146
 -1       965    6    0    1
 -2       139        83       197       196      1238      1229      1223      1224      1239      1242
 -1       966    6    0    1
 -2       120       211       127       204       930      1139       465       934       931       954
 -1       967    6    0    1
 -2       216       185       130       181      1240       842       912      1163       676      1056
 -1       968    6    0    1
 -2       146       147       123        91       543      1098      1097      1151      1150       446
 -1       969    6    0    1
 -2       116       171       123       131      1088      1099       444       477      1206       478
 -1       970    6    0    1
 -2        54        87       195        26       972       971       774       781       329       780
 -1       971    6    0    1
 -2       110       166       126       140      1003      1236       454      1041       633      1076
 -1       972    6    0    1
 -2        20        81        83       196       784      1227       317       787       786      1239
 -1       973    6    0    1
 -2       116       171       150       149      1088       642      1195       996       641       552
 -1       974    6    0    1
 -2       219       216       218       217      1134      1209      1047       838      1161      1235
 -1       975    6    0    1
 -2        77        61       150         8       749       550      1154       302       278       551
 -1       976    6    0    1
 -2       197        49       196        81       948       789      1242       801       783       786
 -1       977    6    0    1
 -2       108       106       207       125       394      1124       899       450       449       828
 -1       978    6    0    1
 -2        72       204       165       161      1086       905       593       583       904       595
 -1       979    6    0    1
 -2       134       182       169       168       918       662       891      1187       661       610
 -1       980    6    0    1
 -2       113       124       101       164       447       462       426      1126       937       936
 -1       981    6    0    1
 -2       201       200        82       106      1011      1012      1014      1050      1095       399
 -1       982    6    0    1
 -2       164       100       156       113      1018      1200       649      1126       410      1007
 -1       983    6    0    1
 -2       164       156       100       155       649      1200      1018       648       571      1208
 -1       984    6    0    1
 -2       216       185       118       130      1240      1217      1174       912       842       482
 -1       985    6    0    1
 -2       150        96       116        95      1155       458      1195      1128       358       460
 -1       986    6    0    1
 -2       152       191        98        97      1037      1038      1039      1194      1129       364
 -1       987    6    0    1
 -2       134       132       182       168       491       866       918      1187      1188       661
 -1       988    6    0    1
 -2        76       156         6        66      1053       569       300       733       568       284
 -1       989    6    0    1
 -2       188       132       206       126       864      1065      1170      1118       486      1066
 -1       990    6    0    1
 -2       111       145       168       169       938       607       969      1232       608       610
 -1       991    6    0    1
 -2       167       114       126        85       882       456      1074      1075       438       453
 -1       992    6    0    1
 -2       150       116        96       172      1195       458      1155       618       901      1196
 -1       993    6    0    1
 -2       115       145       111       169      1144       938       417       890       608      1232
 -1       994    6    0    1
 -2       174       173       152       118       625       621       623      1175      1211      1231
 -1       995    6    0    1
 -2        83        81       197       196      1227       801      1229      1239       786      1242
 -1       996    6    0    1
 -2       170       184       169       115       668       667       613      1133       868       890
 -1       997    6    0    1
 -2       191        62       151       152       732       554      1192      1037       556       558
 -1       998    6    0    1
 -2       217       216       214       219      1161      1177      1115       838      1134      1114
 -1       999    6    0    1
 -2        50        21        85        84       796       322      1169      1109       318       323
 -1      1000    6    0    1
 -2       206       121       110       126       900       435      1005      1066       455       454
 -1      1001    6    0    1
 -2       214       109       221       219      1181      1233      1116      1114      1111       841
 -1      1002    6    0    1
 -2       206       110       121       201      1005       435       900       923      1002       922
 -1      1003    6    0    1
 -2       207       108        46       106       899       392      1123      1124       394       386
 -1      1004    6    0    1
 -2       157       119       122       180       917       452       966       650       815       968
 -1      1005    6    0    1
 -2       128       211       127       120      1149      1139       493       470       930       465
 -1      1006    6    0    1
 -2       207        46       108       204      1123       392       899       898      1127       897
 -1      1007    6    0    1
 -2       216       185       174       118      1240       672      1162      1174      1217      1175
 -1      1008    6    0    1
 -2        73       204        46       207      1241      1127       700      1122       898      1123
 -1      1009    6    0    1
 -2       176       160       205       179       629      1008       878       646       645       855
 -1      1010    6    0    1
 -2        17       200       106        82      1106      1095       385       313      1012       399
 -1      1011    6    0    1
 -2       115       134       169       111       492       891       890       417       490      1232
 -1      1012    6    0    1
 -2       200        73       106       202       980      1107      1095       983       981      1094
 -1      1013    6    0    1
 -2       156        76         6        67      1053       300       569       570       716       285
 -1      1014    6    0    1
 -2       204       211       127       177       931      1139       954       906      1104       953
 -1      1015    6    0    1
 -2       156       100        39       113      1200       390      1006      1007       410       409
 -1      1016    6    0    1
 -2         5        76       192        39       301       735       734       248       713      1201
 -1      1017    6    0    1
 -2       135       127       183       133       502       995      1079       508       489      1023
 -1      1018    6    0    1
 -2       135       183       127       186      1079       995       502      1078       687      1138
 -1      1019    6    0    1
 -2       221       109       215       219      1233       907       839       841      1111       840
 -1      1020    6    0    1
 -2       153       221       109        99      1031      1233      1204       888      1032       400
 -1      1021    6    0    1
 -2       153       221       214       109      1031      1116      1205      1204      1233      1181
 -1      1022    6    0    1
 -2       146        90        57        91      1158      1180       538      1151       342      1218
 -1      1023    6    0    1
 -2        68       157        41        69       572       874       720       287       573       719
 -1      1024    6    0    1
 -2        85        50        51        22      1169       264      1165       321       792       791
 -1      1025    6    0    1
 -2       170       115       123       131      1133       461      1096       999       479       478
 -1      1026    6    0    1
 -2       106        17        46        73       385       257       386      1107       295       700
 -1      1027    6    0    1
 -2        83        20       196        84       317       787      1239       320       319      1110
 -1      1028    6    0    1
 -2        30        92        93       194       343       348       347       765      1112       862
 -1      1029    6    0    1
 -2        86       167       141       140       881       604       852       986       603       524
 -1      1030    6    0    1
 -2        21        50        85        22       796      1169       322       226       792       321
 -1      1031    6    0    1
 -2       115       146       123        91      1145      1097       461       415      1151       446
 -1      1032    6    0    1
 -2       115       170       123       146      1133      1096       461      1145       611      1097
 -1      1033    6    0    1
 -2        73       204        74        46      1241      1087       703       700      1127       702
 -1      1034    6    0    1
 -2        85        51        50       140      1165       264      1169      1077       520       519
 -1      1035    6    0    1
 -2       216       109       214       219       910      1181      1177      1134      1111      1114
 -1      1036    6    0    1
 -2       203       201       110       166      1013      1002      1216      1141      1001      1003
 -1      1037    6    0    1
 -2        65       100       154        37      1166      1159       563       741       368       887
 -1      1038    6    0    1
 -2       129       184       131       135      1100       870       497       495       894       501
 -1      1039    6    0    1
 -2       118       152        98        97      1231      1039       422       423      1194       364
 -1      1040    6    0    1
 -2        93       149        95        94       998       997       459       351      1171       355
 -1      1041    6    0    1
 -2       218       119       215       181       846       819       848      1234       816       820
 -1      1042    6    0    1
 -2       128       186       180       181      1054       674       813       814       673       659
 -1      1043    6    0    1
 -2       133       208       136       125      1021      1022       509       487       964       510
 -1      1044    6    0    1
 -2        71        75       189       213       704       710       712      1125      1089       943
 -1      1045    6    0    1
 -2        34       191        97        98       731      1129       359       363      1038       364
 -1      1046    6    0    1
 -2       183       177       127       186       665       953       995       687       675      1138
 -1      1047    6    0    1
 -2        86        51        85       140       909      1165       326       986       520      1077
 -1      1048    6    0    1
 -2       100       156       192       155      1200      1191      1167      1208       571      1183
 -1      1049    6    0    1
 -2       173       118        97       152      1211       423      1212       621      1231      1194
 -1      1050    6    0    1
 -2       208       133       183       127      1021      1023       992       952       489       995
 -1      1051    6    0    1
 -2       153       221       175       214      1031      1092       626      1205      1116      1185
 -1      1052    6    0    1
 -2        75        44       213        43       705       950      1089       715       379      1198
 -1      1053    6    0    1
 -2        58       147        92       148       542      1043      1044       544       546       963
 -1      1054    6    0    1
 -2        31        93        94       194       346       351       350       766       862       863
 -1      1055    6    0    1
 -2       167        85        86       114      1075       326       881       882       438       413
 -1      1056    6    0    1
 -2       116       148       149        93       961       681       996       418       962       998
 -1      1057    6    0    1
 -2       151       173        97       152       620      1212      1193       558       621      1194
 -1      1058    6    0    1
 -2       117       151        97        96      1199      1193       420       421      1197       361
 -1      1059    6    0    1
 -2        58        30        92        79       761       343      1044       757       758      1045
 -1      1060    6    0    1
 -2        50        49       196       139       263       789       790       518       517      1224
 -1      1061    6    0    1
 -2         7        34       191        97       242       731       730       360       359      1129
 -1      1062    6    0    1
 -2       167        86        85       140       881       326      1075       603       986      1077
 -1      1063    6    0    1
 -2        19        83        15       197       315       314       223       803      1229       800
 -1      1064    6    0    1
 -2       160        72       207       165       580      1146      1009       594       593      1182
 -1      1065    6    0    1
 -2        63        35        64       153       740       739       281       559      1207       560
 -1      1066    6    0    1
 -2        83        81        15       197      1227       311       314      1229       801       800
 -1      1067    6    0    1
 -2       215       181       217       218       820       886       836       848      1234      1235
 -1      1068    6    0    1
 -2        19        17        82       198       222       313       312       806       805      1179
 -1      1069    6    0    1
 -2        47       203       138       137      1213      1220       513       512      1140       515
 -1      1070    6    0    1
 -2        47       137        18       203       512       511       259      1213      1140      1226
 -1      1071    6    0    1
 -2        72        73        18       160       699       294       292       580      1147       581
 -1      1072    6    0    1
 -2       137       160        18       202       596       581       511      1142      1135      1225
 -1      1073    6    0    1
 -2        73        47        18       203       798       259       294       982      1213      1226
 -1      1074    6    0    1
 -2       217       181       216       218       886      1163      1161      1235      1234      1209
 -1      1075    6    0    1
 -2       197       198        19        82       807       806       803      1219      1179       312
 -1      1076    6    0    1
 -2        98        35       153       109       362      1207      1202       475       396      1204
 -1      1077    6    0    1
 -2       109        36        35       153       395       244       396      1204       889      1207
 -1      1078    6    0    1
 -2       109        99        36       153       400       366       395      1204       888       889
 -1      1079    6    0    1
 -2       155       154       100       164       567      1159      1208       648       644      1018
 -1      1080    6    0    1
 -2        47       138       203       197       513      1220      1213       804       949      1214
 -1      1081    6    0    1
 -2       167       126       166       140      1074      1236       634       603      1076       633
 -1      1082    6    0    1
 -2       139        49       197       138       517       948      1223       598       597       949
 -1      1083    6    0    1
 -2       160       202        73        18      1135       981      1147       581      1225       294
 -1      1084    6    0    1
 -2       202       203        73        18       985       982       981      1225      1226       294
 -1      1085    6    0    1
 -2       139       197        49       196      1223       948       517      1224      1242       789
 -1      1086    6    0    1
 -2        73       204        72        74      1241      1086       699       703      1087       701
 -1      1087    6    0    1
 -2        98       118       109       214       422       476       475      1203      1176      1181
 -3
    1PSTEP                         1           1           1          
  100CL  101 1.000000000        1242                     0    1           1
 -4  DISP        4    1
 -5  D1          1    2    1    0
 -5  D2          1    2    2    0
 -5  D3          1    2    3    0
 -5  ALL         1    2    0    0    1ALL
 -1         1-1.23851E-03 1.38397E-03 8.13754E-06
 -1         2-1.23833E-03 1.38748E-03 1.65606E-05
 -1         3-1.23595E-03 1.86246E-03 1.33735E-05
 -1         4-1.23543E-03 1.86595E-03 1.28395E-05
 -1         5 2.69940E-04 1.86608E-03-3.58298E-07
 -1         6 2.70382E-04 1.86929E-03-5.66900E-07
 -1         7 0.00000E+00 0.00000E+00 0.00000E+00
 -1         8 0.00000E+00 0.00000E+00 0.00000E+00
 -1         9 0.00000E+00 0.00000E+00 0.00000E+00
 -1        10 0.00000E+00 0.00000E+00 0.00000E+00
 -1        11 0.00000E+00 0.00000E+00 0.00000E+00
 -1        12 0.00000E+00 0.00000E+00 0.00000E+00
 -1        13-2.40153E-03-6.20976E-04 1.31387E-05
 -1        14-2.40224E-03-6.17084E-04 1.33793E-05
 -1        15-2.37368E-03 1.37102E-03 1.98697E-05
 -1        16-2.37328E-03 1.37469E-03 1.89939E-05
 -1        17-1.54941E-03 1.28103E-03-1.43989E-06
 -1        18-1.54800E-03 1.28362E-03 2.93396E-05
 -1        19-1.93387E-03 1.33995E-03 9.69056E-06
 -1        20-2.35524E-03 1.07361E-03 2.31817E-05
 -1        21-2.33038E-03 7.77663E-04 2.03179E-05
 -1        22-2.32278E-03 4.66142E-04 1.56425E-05
 -1        23-2.34489E-03 8.37824E-05 1.07544E-05
 -1        24-2.38266E-03-2.95334E-04 8.56377E-06
 -1        25-2.07591E-03-6.02612E-04 1.63333E-05
 -1        26-1.72657E-03-5.68865E-04 1.56543E-05
 -1        27-1.34281E-03-5.20797E-04 1.50160E-05
 -1        28-8.86709E-04-4.37136E-04 1.64310E-05
 -1        29-4.29915E-04-3.06232E-04 3.60592E-05
 -1        30 0.00000E+00 0.00000E+00 0.00000E+00
 -1        31 0.00000E+00 0.00000E+00 0.00000E+00
 -1        32 0.00000E+00 0.00000E+00 0.00000E+00
 -1        33 0.00000E+00 0.00000E+00 0.00000E+00
 -1        34 2.05556E-04 3.91664E-04-1.77064E-05
 -1        35 2.57595E-04 7.48295E-04-5.05624E-06
 -1        36 2.74187E-04 1.12942E-03-1.51249E-06
 -1        37 2.72787E-04 1.42204E-03-3.33452E-07
 -1        38 2.70704E-04 1.66672E-03-3.22273E-07
 -1        39 5.42891E-05 1.86609E-03 1.34843E-06
 -1        40-2.47226E-04 1.86549E-03 3.85131E-06
 -1        41-5.71694E-04 1.86580E-03 6.64229E-06
 -1        42-8.34677E-04 1.86542E-03 9.41914E-06
 -1        43-1.05702E-03 1.86349E-03 1.17008E-05
 -1        44-1.23582E-03 1.70378E-03 1.30876E-05
 -1        45-1.23509E-03 1.52693E-03 1.24706E-05
 -1        46-1.32617E-03 1.28012E-03-2.67637E-06
 -1        47-1.80103E-03 1.32837E-03 2.46091E-05
 -1        48-2.09172E-03 1.35945E-03 2.23581E-05
 -1        49-2.35212E-03 1.04295E-03 1.33255E-05
 -1        50-2.32568E-03 7.11615E-04 1.53177E-05
 -1        51-2.32538E-03 3.47742E-04 1.81720E-05
 -1        52-2.36680E-03-1.61852E-04 1.96630E-05
 -1        53-2.08464E-03-5.99187E-04 6.86524E-06
 -1        54-1.71567E-03-5.64725E-04 2.29291E-06
 -1        55-1.26711E-03-5.06444E-04-3.65918E-06
 -1        56-8.21985E-04-4.21145E-04-1.34376E-05
 -1        57-4.23946E-04-2.94867E-04-3.46300E-05
 -1        58 0.00000E+00 0.00000E+00 0.00000E+00
 -1        59 0.00000E+00 0.00000E+00 0.00000E+00
 -1        60 0.00000E+00 0.00000E+00 0.00000E+00
 -1        61 0.00000E+00 0.00000E+00 0.00000E+00
 -1        62 2.02494E-04 3.68232E-04 2.30706E-05
 -1        63 2.53685E-04 6.93774E-04 5.09558E-06
 -1        64 2.72967E-04 1.11565E-03-5.71581E-07
 -1        65 2.72762E-04 1.44257E-03-1.11426E-06
 -1        66 2.70912E-04 1.68229E-03-8.72625E-07
 -1        67-2.36361E-05 1.86926E-03 1.80165E-06
 -1        68-4.30398E-04 1.86890E-03 5.52356E-06
 -1        69-7.76317E-04 1.86913E-03 8.61263E-06
 -1        70-1.04650E-03 1.86703E-03 1.09087E-05
 -1        71-1.23502E-03 1.61312E-03 1.26171E-05
 -1        72-1.32540E-03 1.28344E-03 2.79208E-05
 -1        73-1.55187E-03 1.28133E-03 1.39589E-05
 -1        74-1.23491E-03 1.38310E-03 1.23435E-05
 -1        75-1.23546E-03 1.86434E-03 1.31268E-05
 -1        76 2.70283E-04 1.86770E-03-4.60901E-07
 -1        77 0.00000E+00 0.00000E+00 0.00000E+00
 -1        78 0.00000E+00 0.00000E+00 0.00000E+00
 -1        79 0.00000E+00 0.00000E+00 0.00000E+00
 -1        80-2.40561E-03-6.19934E-04 1.29340E-05
 -1        81-2.37595E-03 1.37365E-03 1.96211E-05
 -1        82-1.73602E-03 1.07522E-03 8.50798E-06
 -1        83-2.03893E-03 1.08011E-03 1.44747E-05
 -1        84-2.03652E-03 7.86495E-04 1.58016E-05
 -1        85-2.03759E-03 4.77575E-04 1.41937E-05
 -1        86-2.04653E-03 9.81987E-05 1.23457E-05
 -1        87-1.89398E-03-2.81929E-04 1.37908E-05
 -1        88-1.50085E-03-2.54920E-04 1.46416E-05
 -1        89-1.03878E-03-1.96367E-04 1.62057E-05
 -1        90-6.01967E-04-1.09118E-04 2.28909E-05
 -1        91-2.98595E-04-5.10013E-05 3.59886E-05
 -1        92-9.49826E-05-3.12631E-05 2.59307E-05
 -1        93-1.84551E-05-1.50794E-05 6.32210E-06
 -1        94-7.27549E-07-5.45050E-06 1.76012E-06
 -1        95 3.80562E-06 3.03309E-05-9.58847E-06
 -1        96 1.57950E-06 1.23173E-04-2.15962E-05
 -1        97 1.52004E-05 3.73805E-04-1.71603E-05
 -1        98 6.04822E-05 7.27617E-04-5.80278E-06
 -1        99 3.11348E-05 1.27733E-03-2.69645E-08
 -1       100 3.34734E-05 1.52641E-03 7.80946E-07
 -1       101-4.09397E-04 1.59185E-03 4.07886E-06
 -1       102-6.74958E-04 1.59954E-03 6.33443E-06
 -1       103-9.02952E-04 1.60598E-03 8.43968E-06
 -1       104-1.05142E-03 1.61414E-03 1.02443E-05
 -1       105-1.05321E-03 1.46132E-03 8.54908E-06
 -1       106-1.35092E-03 1.09346E-03 2.11733E-06
 -1       107-1.16264E-03 1.27892E-03 3.97020E-06
 -1       108-1.17071E-03 1.09952E-03 3.42575E-06
 -1       109-6.43037E-05 9.43180E-04-2.12130E-06
 -1       110-1.74009E-03 7.93455E-04 1.16676E-05
 -1       111-8.46487E-04 2.08128E-04 1.43320E-05
 -1       112-1.28466E-03 1.94879E-04 1.33433E-05
 -1       113-1.90622E-04 1.71178E-03 2.81881E-06
 -1       114-1.65932E-03 1.44984E-04 1.32415E-05
 -1       115-5.82929E-04 2.03013E-04 1.42486E-05
 -1       116-1.07019E-04 7.04502E-05 5.73151E-06
 -1       117-1.29100E-04 3.06711E-04-7.13324E-06
 -1       118-1.50290E-04 6.13845E-04-4.81060E-06
 -1       119-5.34475E-04 1.28760E-03 3.64806E-06
 -1       120-9.46492E-04 1.28446E-03 5.82351E-06
 -1       121-1.35543E-03 8.33598E-04 7.81469E-06
 -1       122-8.11290E-04 1.43639E-03 6.43521E-06
 -1       123-2.48681E-04 1.04494E-04 1.36210E-05
 -1       124-2.26064E-04 1.43767E-03 1.99760E-06
 -1       125-1.16268E-03 8.52045E-04 6.76816E-06
 -1       126-1.50230E-03 4.96586E-04 1.16505E-05
 -1       127-9.46199E-04 1.09976E-03 4.92946E-06
 -1       128-6.61741E-04 1.12300E-03 4.04960E-06
 -1       129-3.51346E-04 5.18008E-04 1.31574E-06
 -1       130-4.41530E-04 8.11232E-04 1.92748E-06
 -1       131-3.13851E-04 2.69150E-04 5.96292E-06
 -1       132-1.07104E-03 4.88807E-04 1.05908E-05
 -1       133-9.23537E-04 8.62474E-04 5.92518E-06
 -1       134-8.15449E-04 4.71437E-04 9.58190E-06
 -1       135-7.18848E-04 6.52396E-04 6.51505E-06
 -1       136-1.00574E-03 7.71923E-04 7.21438E-06
 -1       137-1.67058E-03 1.07341E-03 2.12910E-05
 -1       138-1.95601E-03 1.09232E-03 1.94713E-05
 -1       139-2.02533E-03 8.69186E-04 1.62983E-05
 -1       140-2.02610E-03 5.01731E-04 1.51459E-05
 -1       141-2.03735E-03 1.69656E-05 1.39341E-05
 -1       142-2.06192E-03-2.70904E-04 1.16800E-05
 -1       143-1.48078E-03-1.64794E-04 3.42022E-06
 -1       144-1.03307E-03-1.14160E-04-3.58495E-06
 -1       145-6.60595E-04-5.38733E-05-1.22177E-05
 -1       146-3.68683E-04-1.05327E-05-2.18813E-05
 -1       147-1.41760E-04-5.26907E-06-2.21099E-05
 -1       148-3.40221E-05-7.82018E-06-7.17751E-06
 -1       149-4.45957E-06 1.20727E-05 2.98953E-06
 -1       150-1.18691E-05 7.43464E-05 1.48294E-05
 -1       151-2.53275E-05 2.15221E-04 2.27605E-05
 -1       152-1.29413E-05 5.10103E-04 1.20245E-05
 -1       153 2.22715E-05 9.55031E-04 3.87170E-06
 -1       154 3.18947E-05 1.29274E-03 2.01936E-06
 -1       155 3.37791E-05 1.53658E-03 1.51845E-06
 -1       156 5.18102E-06 1.70365E-03 1.70198E-06
 -1       157-6.02466E-04 1.55807E-03 7.81992E-06
 -1       158-8.79253E-04 1.56810E-03 1.05034E-05
 -1       159-1.07276E-03 1.49508E-03 1.25272E-05
 -1       160-1.35023E-03 1.09680E-03 2.26266E-05
 -1       161-1.16189E-03 1.28219E-03 1.87134E-05
 -1       162-9.43707E-06-3.91558E-06-2.59732E-06
 -1       163-9.86077E-04 1.37496E-03 1.27362E-05
 -1       164-2.27965E-04 1.50238E-03 4.28315E-06
 -1       165-1.16993E-03 1.10281E-03 1.86341E-05
 -1       166-1.74122E-03 8.62911E-04 1.72638E-05
 -1       167-1.56659E-03 2.73042E-04 9.71367E-06
 -1       168-8.72010E-04 2.31948E-04 2.74761E-07
 -1       169-6.10738E-04 2.25848E-04-2.91936E-06
 -1       170-3.67547E-04 1.98806E-04-4.28329E-06
 -1       171-1.52661E-04 1.40096E-04 2.95913E-07
 -1       172-1.22892E-04 2.01443E-04 7.88959E-06
 -1       173-1.62658E-04 4.29596E-04 1.00307E-05
 -1       174-1.78767E-04 8.48936E-04 6.48952E-06
 -1       175-1.78720E-04 1.18926E-03 4.63192E-06
 -1       176-1.41440E-03 9.04229E-04 1.76112E-05
 -1       177-9.60040E-04 1.18375E-03 1.37790E-05
 -1       178-1.26084E-03 2.69827E-04 5.97089E-06
 -1       179-1.21885E-03 9.22229E-04 1.61014E-05
 -1       180-7.30852E-04 1.26642E-03 9.98913E-06
 -1       181-4.45869E-04 1.17381E-03 7.24354E-06
 -1       182-7.99341E-04 5.73426E-04 6.56273E-06
 -1       183-9.30966E-04 9.34113E-04 1.21910E-05
 -1       184-5.62709E-04 5.34634E-04 5.07050E-06
 -1       185-4.78708E-04 7.03115E-04 7.11012E-06
 -1       186-6.64942E-04 1.07940E-03 9.21596E-06
 -1       187-2.62692E-04 3.02834E-04 3.60182E-06
 -1       188-1.24738E-03 6.35284E-04 1.14298E-05
 -1       189-1.23469E-03 1.61669E-03 1.27777E-05
 -1       190-9.40928E-04 1.86638E-03 1.02117E-05
 -1       191 2.03766E-04 3.84496E-04 4.68953E-07
 -1       192 2.70887E-04 1.67431E-03-5.75661E-07
 -1       193 0.00000E+00 0.00000E+00 0.00000E+00
 -1       194 0.00000E+00 0.00000E+00 0.00000E+00
 -1       195-2.08185E-03-6.03053E-04 1.14923E-05
 -1       196-2.34041E-03 9.08181E-04 1.79859E-05
 -1       197-2.01229E-03 1.35354E-03 1.73219E-05
 -1       198-1.77987E-03 1.32526E-03 1.54802E-05
 -1       199-1.08327E-03 1.36805E-03 9.26795E-06
 -1       200-1.60793E-03 1.13349E-03 1.00647E-05
 -1       201-1.56120E-03 9.36598E-04 1.19323E-05
 -1       202-1.51690E-03 1.07444E-03 1.59987E-05
 -1       203-1.76978E-03 1.08290E-03 1.61193E-05
 -1       204-1.12841E-03 1.22957E-03 1.09886E-05
 -1       205-1.37410E-03 9.58724E-04 1.18443E-05
 -1       206-1.29865E-03 7.76726E-04 1.12287E-05
 -1       207-1.23903E-03 1.06596E-03 1.15976E-05
 -1       208-1.08412E-03 9.31177E-04 1.02497E-05
 -1       209-1.12276E-03 1.49207E-03 1.07986E-05
 -1       210-9.40192E-04 1.46531E-03 9.47307E-06
 -1       211-9.05461E-04 1.26858E-03 9.04658E-06
 -1       212-1.10625E-03 1.43095E-03 1.18680E-05
 -1       213-1.05964E-03 1.66202E-03 1.11310E-05
 -1       214-1.10913E-04 8.85466E-04 2.69174E-06
 -1       215-2.44209E-04 1.24545E-03 2.83429E-06
 -1       216-2.87073E-04 8.79833E-04 3.52574E-06
 -1       217-2.44822E-04 1.06076E-03 4.05630E-06
 -1       218-3.70818E-04 1.09428E-03 3.82385E-06
 -1       219-2.07047E-04 1.02111E-03 2.06683E-06
 -1       220-3.04358E-04 1.02114E-03 1.66224E-06
 -1       221-9.80364E-05 1.12073E-03 2.18139E-06
 -1       222-1.74022E-03 1.31566E-03 5.13717E-06
 -1       223-2.14401E-03 1.35927E-03 1.40356E-05
 -1       224-2.36798E-03 1.21273E-03 2.23718E-05
 -1       225-2.34163E-03 9.20455E-04 2.22380E-05
 -1       226-2.32387E-03 6.20586E-04 1.80597E-05
 -1       227-2.33055E-03 2.78921E-04 1.30187E-05
 -1       228-2.36371E-03-9.83180E-05 9.33946E-06
 -1       229-2.39436E-03-4.49990E-04 1.05453E-05
 -1       230-2.23309E-03-6.13095E-04 1.50217E-05
 -1       231-1.89811E-03-5.86614E-04 1.62418E-05
 -1       232-1.53304E-03-5.46593E-04 1.52935E-05
 -1       233-1.11425E-03-4.83218E-04 1.52947E-05
 -1       234-6.65532E-04-3.80976E-04 2.26708E-05
 -1       235-2.60931E-04-2.06110E-04 4.00638E-05
 -1       236 0.00000E+00 0.00000E+00 0.00000E+00
 -1       237 0.00000E+00 0.00000E+00 0.00000E+00
 -1       238 0.00000E+00 0.00000E+00 0.00000E+00
 -1       239 0.00000E+00 0.00000E+00 0.00000E+00
 -1       240 0.00000E+00 0.00000E+00 0.00000E+00
 -1       241 0.00000E+00 0.00000E+00 0.00000E+00
 -1       242 1.43093E-04 2.28368E-04-2.74512E-05
 -1       243 2.40854E-04 5.78861E-04-1.00101E-05
 -1       244 2.69275E-04 9.42453E-04-3.27506E-06
 -1       245 2.73996E-04 1.27718E-03-8.70661E-07
 -1       246 2.71663E-04 1.54496E-03-3.18576E-07
 -1       247 2.70207E-04 1.76652E-03-3.59574E-07
 -1       248 1.62315E-04 1.86612E-03 4.80398E-07
 -1       249-9.71288E-05 1.86582E-03 2.59540E-06
 -1       250-4.10348E-04 1.86545E-03 5.22134E-06
 -1       251-7.03989E-04 1.86586E-03 8.01765E-06
 -1       252-9.46726E-04 1.86459E-03 1.06084E-05
 -1       253-1.14669E-03 1.86278E-03 1.25230E-05
 -1       254-1.23595E-03 1.78328E-03 1.31720E-05
 -1       255-1.23543E-03 1.61457E-03 1.29158E-05
 -1       256-1.23569E-03 1.45333E-03 1.07247E-05
 -1       257-1.42577E-03 1.26391E-03-3.93085E-06
 -1       258-1.26301E-03 1.32181E-03 2.48782E-06
 -1       259-1.67421E-03 1.30870E-03 2.69838E-05
 -1       260-1.94432E-03 1.34541E-03 2.34258E-05
 -1       261-2.22620E-03 1.36902E-03 2.12740E-05
 -1       262-2.36522E-03 1.19902E-03 1.49527E-05
 -1       263-2.33614E-03 8.72124E-04 1.38075E-05
 -1       264-2.32182E-03 5.29204E-04 1.67523E-05
 -1       265-2.34197E-03 1.02668E-04 1.94414E-05
 -1       266-2.38938E-03-3.72851E-04 1.82664E-05
 -1       267-2.23541E-03-6.11482E-04 9.57410E-06
 -1       268-1.89681E-03-5.83016E-04 4.37915E-06
 -1       269-1.48934E-03-5.38177E-04-5.97721E-07
 -1       270-1.04508E-03-4.68527E-04-8.24581E-06
 -1       271-6.29632E-04-3.68439E-04-2.24525E-05
 -1       272-2.57586E-04-1.88034E-04-3.37300E-05
 -1       273 0.00000E+00 0.00000E+00 0.00000E+00
 -1       274 0.00000E+00 0.00000E+00 0.00000E+00
 -1       275 0.00000E+00 0.00000E+00 0.00000E+00
 -1       276 0.00000E+00 0.00000E+00 0.00000E+00
 -1       277 0.00000E+00 0.00000E+00 0.00000E+00
 -1       278 0.00000E+00 0.00000E+00 0.00000E+00
 -1       279 1.32414E-04 2.24454E-04 2.90562E-05
 -1       280 2.35041E-04 5.39203E-04 1.17974E-05
 -1       281 2.68587E-04 9.09981E-04 1.25626E-06
 -1       282 2.73686E-04 1.28098E-03-8.96662E-07
 -1       283 2.71804E-04 1.56302E-03-1.02927E-06
 -1       284 2.70541E-04 1.77590E-03-7.06350E-07
 -1       285 1.23472E-04 1.86932E-03 6.59623E-07
 -1       286-2.28409E-04 1.86870E-03 3.59981E-06
 -1       287-6.04542E-04 1.86919E-03 7.09753E-06
 -1       288-9.12677E-04 1.86835E-03 9.70592E-06
 -1       289-1.14113E-03 1.86630E-03 1.19044E-05
 -1       290-1.23531E-03 1.73936E-03 1.27805E-05
 -1       291-1.23456E-03 1.49609E-03 1.34867E-05
 -1       292-1.42481E-03 1.26710E-03 3.04789E-05
 -1       293-1.26242E-03 1.32514E-03 2.20573E-05
 -1       294-1.55099E-03 1.28316E-03 2.18330E-05
 -1       295-1.55170E-03 1.28167E-03 6.30125E-06
 -1       296-1.23569E-03 1.38530E-03 1.47505E-05
 -1       297-1.23596E-03 1.38362E-03 1.00274E-05
 -1       298-1.23543E-03 1.86514E-03 1.29439E-05
 -1       299-1.23568E-03 1.86339E-03 1.32929E-05
 -1       300 2.70313E-04 1.86848E-03-5.25400E-07
 -1       301 2.70079E-04 1.86688E-03-3.89254E-07
 -1       302 0.00000E+00 0.00000E+00 0.00000E+00
 -1       303 0.00000E+00 0.00000E+00 0.00000E+00
 -1       304 0.00000E+00 0.00000E+00 0.00000E+00
 -1       305 0.00000E+00 0.00000E+00 0.00000E+00
 -1       306 0.00000E+00 0.00000E+00 0.00000E+00
 -1       307 0.00000E+00 0.00000E+00 0.00000E+00
 -1       308-2.40459E-03-6.19504E-04 1.31404E-05
 -1       309-2.40430E-03-6.21412E-04 1.31638E-05
 -1       310-2.37522E-03 1.37548E-03 1.93169E-05
 -1       311-2.37539E-03 1.37348E-03 1.98287E-05
 -1       312-1.83380E-03 1.20155E-03 8.90059E-06
 -1       313-1.64116E-03 1.17900E-03 4.50168E-06
 -1       314-2.19939E-03 1.21679E-03 1.72692E-05
 -1       315-1.98527E-03 1.20768E-03 1.20571E-05
 -1       316-1.88578E-03 1.07956E-03 1.14571E-05
 -1       317-2.19553E-03 1.07719E-03 1.87363E-05
 -1       318-2.18568E-03 7.81769E-04 1.80785E-05
 -1       319-2.18975E-03 9.24190E-04 1.87539E-05
 -1       320-2.03743E-03 9.28100E-04 1.54010E-05
 -1       321-2.18274E-03 4.71767E-04 1.49844E-05
 -1       322-2.18211E-03 6.25214E-04 1.66856E-05
 -1       323-2.03606E-03 6.30157E-04 1.50283E-05
 -1       324-2.19649E-03 9.12408E-05 1.15867E-05
 -1       325-2.18763E-03 2.85170E-04 1.32387E-05
 -1       326-2.04096E-03 2.91168E-04 1.31844E-05
 -1       327-2.20766E-03-9.02276E-05 1.08367E-05
 -1       328-2.22908E-03-4.47461E-04 1.26055E-05
 -1       329-1.80894E-03-4.25182E-04 1.49323E-05
 -1       330-1.98377E-03-4.35910E-04 1.46641E-05
 -1       331-1.42093E-03-3.86450E-04 1.48787E-05
 -1       332-1.61315E-03-4.07877E-04 1.49612E-05
 -1       333-1.69531E-03-2.70651E-04 1.42262E-05
 -1       334-9.61881E-04-3.12389E-04 1.63489E-05
 -1       335-1.19068E-03-3.54268E-04 1.52949E-05
 -1       336-1.26899E-03-2.29117E-04 1.53364E-05
 -1       337-5.15069E-04-1.92722E-04 2.82939E-05
 -1       338-7.44514E-04-2.62804E-04 1.96530E-05
 -1       339-8.23981E-04-1.56925E-04 1.87838E-05
 -1       340-1.62525E-04-8.31634E-05 3.95779E-05
 -1       341-3.43680E-04-1.30687E-04 4.00724E-05
 -1       342-4.46681E-04-7.78603E-05 2.88273E-05
 -1       343-3.96591E-05-3.30437E-05 1.66906E-05
 -1       344-7.24105E-05-5.73677E-05 2.82419E-05
 -1       345-1.66955E-04-3.75432E-05 3.24230E-05
 -1       346-7.23325E-06-1.21427E-05 4.30069E-06
 -1       347-1.93212E-05-2.20291E-05 1.04470E-05
 -1       348-4.80934E-05-2.26992E-05 1.52803E-05
 -1       349-2.38958E-07-2.81505E-06 1.01499E-06
 -1       350-2.96856E-06-8.01085E-06 2.05287E-06
 -1       351-7.81572E-06-9.99887E-06 3.77936E-06
 -1       352 2.08033E-06-1.92628E-06 6.85083E-07
 -1       353 1.32121E-05 1.73136E-05-7.95932E-06
 -1       354 6.28868E-06 4.52195E-06-2.69460E-06
 -1       355 1.42840E-06 6.73325E-06-2.80637E-06
 -1       356 2.94448E-05 7.58861E-05-2.44548E-05
 -1       357 1.97576E-05 3.35530E-05-1.53331E-05
 -1       358 4.23007E-06 6.39742E-05-1.52105E-05
 -1       359 9.41944E-05 3.77753E-04-1.80581E-05
 -1       360 4.78855E-05 2.09989E-04-2.58536E-05
 -1       361-1.14547E-06 2.26682E-04-2.22258E-05
 -1       362 1.55189E-04 7.37620E-04-5.33392E-06
 -1       363 1.31025E-04 5.65639E-04-1.09962E-05
 -1       364 4.09753E-05 5.55569E-04-1.05544E-05
 -1       365 1.51726E-04 1.35009E-03-2.09664E-07
 -1       366 1.50088E-04 1.20354E-03-7.86199E-07
 -1       367 1.52296E-04 1.59666E-03 2.72513E-07
 -1       368 1.52235E-04 1.47429E-03 1.60374E-07
 -1       369 3.26576E-05 1.40306E-03 3.57735E-07
 -1       370 1.62317E-04 1.76659E-03 4.05516E-07
 -1       371-4.90962E-04 1.73001E-03 5.36506E-06
 -1       372-3.28833E-04 1.72814E-03 3.98266E-06
 -1       373-7.55604E-04 1.73342E-03 7.85446E-06
 -1       374-6.23831E-04 1.73171E-03 6.56095E-06
 -1       375-5.42514E-04 1.59544E-03 5.17759E-06
 -1       376-9.80639E-04 1.73521E-03 1.01496E-05
 -1       377-8.68969E-04 1.73463E-03 9.00112E-06
 -1       378-7.89518E-04 1.60309E-03 7.37004E-06
 -1       379-1.14679E-03 1.78333E-03 1.22290E-05
 -1       380-1.14462E-03 1.57042E-03 1.12323E-05
 -1       381-1.14386E-03 1.65900E-03 1.17064E-05
 -1       382-1.14832E-03 1.42211E-03 8.97776E-06
 -1       383-1.14606E-03 1.49473E-03 1.04103E-05
 -1       384-1.05224E-03 1.53688E-03 9.48405E-06
 -1       385-1.44295E-03 1.17775E-03-2.74763E-07
 -1       386-1.33863E-03 1.19561E-03-8.69677E-07
 -1       387-1.24207E-03 1.27892E-03 1.35359E-06
 -1       388-1.20409E-03 1.33380E-03 5.37293E-06
 -1       389-2.13178E-03-2.90915E-04 1.17866E-05
 -1       390 4.39669E-05 1.69693E-03 1.10474E-06
 -1       391-1.97179E-03-8.53076E-05 1.25578E-05
 -1       392-1.25077E-03 1.19413E-03 8.14382E-07
 -1       393-1.16699E-03 1.19385E-03 2.86266E-06
 -1       394-1.25789E-03 1.09729E-03 2.55316E-06
 -1       395 9.90995E-05 1.03589E-03-1.93897E-06
 -1       396 8.96157E-05 8.44796E-04-4.03548E-06
 -1       397-1.05397E-03 1.73836E-03 1.10075E-05
 -1       398-1.10775E-03 1.36624E-03 7.15857E-06
 -1       399-1.53540E-03 1.08646E-03 4.52755E-06
 -1       400-1.64828E-05 1.11297E-03-9.72430E-07
 -1       401-1.88622E-03 9.30417E-04 1.28959E-05
 -1       402-1.73759E-03 9.30958E-04 1.03311E-05
 -1       403-1.88764E-03 7.90285E-04 1.36373E-05
 -1       404-7.23772E-04 4.26895E-05 1.80487E-05
 -1       405-9.32466E-04 2.32605E-05 1.61588E-05
 -1       406-1.15960E-03 1.02122E-06 1.50208E-05
 -1       407-1.38990E-03-1.79767E-05 1.41746E-05
 -1       408-1.06192E-03 2.02550E-04 1.36663E-05
 -1       409-6.85886E-05 1.78865E-03 2.13135E-06
 -1       410-7.88683E-05 1.61953E-03 1.75863E-06
 -1       411-1.57897E-03-5.00330E-05 1.39255E-05
 -1       412-1.77511E-03-5.87914E-05 1.33528E-05
 -1       413-1.85172E-03 1.20973E-04 1.27371E-05
 -1       414-1.47005E-03 1.69607E-04 1.33319E-05
 -1       415-4.47762E-04 6.06337E-05 2.06824E-05
 -1       416-5.81324E-04 5.50581E-05 1.90923E-05
 -1       417-7.11202E-04 2.07605E-04 1.42353E-05
 -1       418-5.02487E-05 9.39112E-06 6.76692E-06
 -1       419-1.08464E-04 1.57421E-05 1.49469E-05
 -1       420-6.41989E-05 3.29597E-04-1.20989E-05
 -1       421-5.69610E-05 2.16491E-04-1.40534E-05
 -1       422-5.31860E-05 6.65761E-04-5.85799E-06
 -1       423-6.13238E-05 4.96398E-04-9.92982E-06
 -1       424-1.44432E-04 4.53762E-04-6.38612E-06
 -1       425-9.77691E-04 1.61036E-03 9.29589E-06
 -1       426-3.00556E-04 1.65121E-03 3.46286E-06
 -1       427-2.18966E-04 1.78886E-03 3.33554E-06
 -1       428-6.05874E-04 1.44620E-03 4.97803E-06
 -1       429-4.73733E-04 1.43912E-03 3.97115E-06
 -1       430-1.05415E-03 1.28057E-03 5.40068E-06
 -1       431-1.00179E-03 1.37485E-03 6.95796E-06
 -1       432-9.77929E-04 1.53232E-03 8.63309E-06
 -1       433-1.53875E-03 9.49051E-04 7.32877E-06
 -1       434-1.35373E-03 9.63214E-04 5.37230E-06
 -1       435-1.54176E-03 8.15285E-04 9.44255E-06
 -1       436-2.55533E-04 1.27651E-03 1.48422E-06
 -1       437-2.95601E-04 1.11709E-03 9.59567E-07
 -1       438-1.84900E-03 3.11565E-04 1.32276E-05
 -1       439-1.88854E-03 6.35056E-04 1.35655E-05
 -1       440-9.33169E-04 1.44998E-03 7.39999E-06
 -1       441-8.57961E-04 1.52188E-03 7.42456E-06
 -1       442-7.43400E-04 1.51690E-03 6.36990E-06
 -1       443-8.78963E-04 1.35887E-03 6.23796E-06
 -1       444-1.69136E-04 8.77654E-05 9.71335E-06
 -1       445-1.70996E-04 2.39208E-05 1.94919E-05
 -1       446-2.62972E-04 3.28552E-05 2.36484E-05
 -1       447-2.08487E-04 1.57546E-03 2.43479E-06
 -1       448-9.72672E-05 1.48134E-03 1.36238E-06
 -1       449-1.25765E-03 9.71099E-04 5.02202E-06
 -1       450-1.16699E-03 9.77182E-04 5.12557E-06
 -1       451-1.25686E-03 8.43700E-04 7.24037E-06
 -1       452-6.72856E-04 1.36377E-03 5.05833E-06
 -1       453-1.76751E-03 4.87277E-04 1.29579E-05
 -1       454-1.62086E-03 6.42631E-04 1.16454E-05
 -1       455-1.42770E-03 6.65509E-04 1.00417E-05
 -1       456-1.57967E-03 3.24280E-04 1.27448E-05
 -1       457-1.23013E-04 1.67786E-04-2.18332E-06
 -1       458-5.47080E-05 1.01625E-04-7.30048E-06
 -1       459-1.10161E-05 8.76596E-06-1.68043E-07
 -1       460-4.04302E-05 5.30123E-05-2.32505E-06
 -1       461-4.03760E-04 1.55047E-04 1.41576E-05
 -1       462-3.17707E-04 1.51537E-03 3.01940E-06
 -1       463-9.76001E-05 1.35762E-03 8.00187E-07
 -1       464-1.05639E-03 1.19297E-03 4.49805E-06
 -1       465-9.47218E-04 1.19381E-03 5.24174E-06
 -1       466-1.05661E-03 1.09964E-03 4.42515E-06
 -1       467-3.82532E-04 1.35988E-03 2.87228E-06
 -1       468-7.38653E-04 1.28362E-03 5.08284E-06
 -1       469-5.99049E-04 1.20420E-03 3.77585E-06
 -1       470-8.03545E-04 1.20589E-03 4.99764E-06
 -1       471-2.52482E-04 5.60096E-04-1.69635E-06
 -1       472-2.32424E-04 4.14650E-04-2.31915E-06
 -1       473-4.90983E-04 1.05337E-03 2.70550E-06
 -1       474-2.59071E-04 8.68157E-04-7.71272E-07
 -1       475-1.17934E-06 8.36857E-04-3.94540E-06
 -1       476-1.11200E-04 7.78385E-04-3.47589E-06
 -1       477-2.00415E-04 1.58109E-04 5.75118E-06
 -1       478-2.82907E-04 1.81527E-04 9.51421E-06
 -1       479-4.34243E-04 2.42359E-04 1.03142E-05
 -1       480-2.16166E-04 2.89176E-04-3.80404E-07
 -1       481-1.39426E-03 3.45015E-04 1.25265E-05
 -1       482-2.90259E-04 7.13001E-04-1.12822E-06
 -1       483-3.98313E-04 6.63197E-04 1.45351E-06
 -1       484-9.60554E-04 3.44390E-04 1.22859E-05
 -1       485-1.17272E-03 3.46854E-04 1.22728E-05
 -1       486-1.28123E-03 4.94690E-04 1.10934E-05
 -1       487-1.04001E-03 8.58512E-04 6.39904E-06
 -1       488-1.04857E-03 9.80665E-04 5.25283E-06
 -1       489-9.35302E-04 9.82263E-04 5.28865E-06
 -1       490-8.28413E-04 3.40082E-04 1.21449E-05
 -1       491-9.40314E-04 4.81665E-04 1.01766E-05
 -1       492-7.01780E-04 3.31696E-04 1.19011E-05
 -1       493-8.01977E-04 1.11023E-03 4.66593E-06
 -1       494-5.76075E-04 7.29646E-04 4.17366E-06
 -1       495-5.25103E-04 5.87822E-04 4.40596E-06
 -1       496-5.47208E-04 3.75299E-04 8.91100E-06
 -1       497-3.36078E-04 3.86877E-04 3.31269E-06
 -1       498-5.50805E-04 9.69777E-04 2.96963E-06
 -1       499-1.21598E-03 6.57982E-04 9.22832E-06
 -1       500-6.94674E-04 8.87081E-04 4.68977E-06
 -1       501-5.12731E-04 4.56071E-04 6.45364E-06
 -1       502-8.36303E-04 8.77926E-04 5.47189E-06
 -1       503-1.03707E-03 6.30379E-04 8.99204E-06
 -1       504-1.17549E-03 8.04606E-04 7.41842E-06
 -1       505-7.65206E-04 5.61914E-04 8.06424E-06
 -1       506-9.13283E-04 6.19097E-04 8.41072E-06
 -1       507-8.59962E-04 7.13357E-04 7.03682E-06
 -1       508-8.21827E-04 7.57439E-04 6.29091E-06
 -1       509-9.63806E-04 8.17599E-04 6.56845E-06
 -1       510-1.08377E-03 8.12025E-04 6.98023E-06
 -1       511-1.60804E-03 1.17844E-03 2.48194E-05
 -1       512-1.73435E-03 1.19477E-03 2.31108E-05
 -1       513-1.87709E-03 1.20949E-03 2.19978E-05
 -1       514-2.02293E-03 1.21986E-03 2.06431E-05
 -1       515-1.81168E-03 1.08427E-03 2.04743E-05
 -1       516-2.22300E-03 1.19695E-03 1.78174E-05
 -1       517-2.18447E-03 9.53656E-04 1.55151E-05
 -1       518-2.17902E-03 7.89633E-04 1.53856E-05
 -1       519-2.17576E-03 6.05422E-04 1.54980E-05
 -1       520-2.17666E-03 4.25463E-04 1.64873E-05
 -1       521-2.02493E-03 6.82154E-04 1.57090E-05
 -1       522-2.18563E-03 1.85595E-04 1.67189E-05
 -1       523-2.19936E-03-7.07729E-05 1.63855E-05
 -1       524-2.03031E-03 2.66199E-04 1.48785E-05
 -1       525-2.21599E-03-2.15283E-04 1.57970E-05
 -1       526-2.22288E-03-4.34260E-04 1.29165E-05
 -1       527-2.07307E-03-4.29541E-04 9.52997E-06
 -1       528-2.04958E-03-1.23105E-04 1.28376E-05
 -1       529-1.88583E-03-4.20025E-04 6.62276E-06
 -1       530-1.59731E-03-3.57351E-04 2.93343E-06
 -1       531-1.37221E-03-3.32835E-04-3.73264E-08
 -1       532-1.14903E-03-3.00897E-04-3.79735E-06
 -1       533-9.25980E-04-2.61118E-04-8.47836E-06
 -1       534-1.25623E-03-1.42155E-04-9.91419E-08
 -1       535-7.36494E-04-2.19010E-04-1.27089E-05
 -1       536-5.39703E-04-1.67691E-04-2.18210E-05
 -1       537-8.47211E-04-8.52630E-05-7.45552E-06
 -1       538-3.70841E-04-1.18175E-04-3.24869E-05
 -1       539-2.08377E-04-7.63453E-05-3.53254E-05
 -1       540-5.11140E-04-2.98923E-05-1.66457E-05
 -1       541-1.00085E-04-5.78745E-05-2.96568E-05
 -1       542-5.30754E-05-3.90652E-05-1.97434E-05
 -1       543-2.32207E-04-3.20305E-06-2.40891E-05
 -1       544-2.69551E-05-2.48944E-05-9.95726E-06
 -1       545-1.10992E-05-1.46548E-05-5.10925E-06
 -1       546-7.41156E-05-7.73083E-06-1.47062E-05
 -1       547-6.48781E-07-3.90321E-06-1.05365E-06
 -1       548 4.23995E-06 1.86292E-06 1.66101E-06
 -1       549 9.18982E-06 1.38758E-05 5.73251E-06
 -1       550 1.39587E-05 3.02515E-05 1.18446E-05
 -1       551 2.14589E-05 6.21949E-05 2.09154E-05
 -1       552-6.72156E-06 3.67368E-05 8.72688E-06
 -1       553 2.30969E-05 1.19777E-04 2.82514E-05
 -1       554 3.56796E-05 2.61129E-04 2.80066E-05
 -1       555-1.80945E-05 1.24498E-04 1.99677E-05
 -1       556 7.71309E-05 4.38440E-04 1.58794E-05
 -1       557 1.08158E-04 6.00633E-04 9.03460E-06
 -1       558-2.31860E-05 3.56132E-04 1.66888E-05
 -1       559 1.33546E-04 8.25554E-04 4.14055E-06
 -1       560 1.45942E-04 1.03603E-03 1.67569E-06
 -1       561 8.94862E-06 7.40033E-04 6.95301E-06
 -1       562 1.50523E-04 1.20457E-03 8.23934E-07
 -1       563 1.52304E-04 1.36801E-03 4.25699E-07
 -1       564 2.84851E-05 1.12700E-03 2.78179E-06
 -1       565 1.52663E-04 1.48964E-03 2.63765E-07
 -1       566 1.52643E-04 1.60961E-03 2.77886E-07
 -1       567 3.31391E-05 1.41575E-03 1.72087E-06
 -1       568 1.38062E-04 1.69295E-03 4.44521E-07
 -1       569 1.37949E-04 1.78648E-03 5.20790E-07
 -1       570-9.21863E-06 1.78658E-03 1.74818E-06
 -1       571 1.95123E-05 1.62041E-03 1.60451E-06
 -1       572-5.17320E-04 1.71228E-03 6.61407E-06
 -1       573-6.90352E-04 1.71504E-03 8.20954E-06
 -1       574-8.28188E-04 1.71699E-03 9.48665E-06
 -1       575-9.63745E-04 1.71817E-03 1.05876E-05
 -1       576-7.41296E-04 1.56333E-03 9.12955E-06
 -1       577-1.14128E-03 1.73929E-03 1.19854E-05
 -1       578-1.15456E-03 1.55401E-03 1.25217E-05
 -1       579-1.15695E-03 1.44007E-03 1.39314E-05
 -1       580-1.33789E-03 1.19909E-03 2.58609E-05
 -1       581-1.44207E-03 1.18143E-03 2.65952E-05
 -1       582-1.20332E-03 1.33711E-03 1.80035E-05
 -1       583-1.24135E-03 1.28220E-03 2.25595E-05
 -1       584-5.14624E-06-1.12650E-05-2.77289E-06
 -1       585 1.82679E-06-2.40348E-06-1.06349E-07
 -1       586-1.11731E-03 1.38427E-03 1.47498E-05
 -1       587-1.07364E-03 1.32608E-03 1.52562E-05
 -1       588-1.03061E-03 1.43582E-03 1.27496E-05
 -1       589-1.06038E-03 1.59218E-03 1.17588E-05
 -1       590-1.26377E-04 1.68576E-03 2.96289E-06
 -1       591-3.29489E-04 1.68772E-03 4.87943E-06
 -1       592-4.15868E-04 1.52968E-03 6.09505E-06
 -1       593-1.25001E-03 1.19754E-03 2.28805E-05
 -1       594-1.25704E-03 1.10061E-03 2.08378E-05
 -1       595-1.16636E-03 1.19735E-03 1.95035E-05
 -1       596-1.50355E-03 1.08654E-03 2.28064E-05
 -1       597-2.15149E-03 1.07019E-03 1.70955E-05
 -1       598-1.99080E-03 9.77822E-04 1.77151E-05
 -1       599-1.84684E-03 9.73340E-04 1.85608E-05
 -1       600-1.88216E-03 8.66582E-04 1.69623E-05
 -1       601-1.70566E-03 9.67349E-04 1.90696E-05
 -1       602-1.76624E-03-2.21016E-04 7.36089E-06
 -1       603-1.79599E-03 3.86572E-04 1.25953E-05
 -1       604-1.79853E-03 1.47574E-04 1.14370E-05
 -1       605-1.75610E-03-7.80590E-05 8.51451E-06
 -1       606-9.45596E-04 6.92582E-05-1.95697E-06
 -1       607-7.66374E-04 8.35758E-05-5.37398E-06
 -1       608-6.27754E-04 9.14402E-05-7.62652E-06
 -1       609-4.93748E-04 9.65074E-05-1.02784E-05
 -1       610-7.38155E-04 2.30741E-04-1.40435E-06
 -1       611-3.64133E-04 9.27122E-05-1.21720E-05
 -1       612-2.53680E-04 8.15559E-05-1.18283E-05
 -1       613-4.82672E-04 2.15222E-04-3.92152E-06
 -1       614-1.52434E-04 6.26559E-05-9.21941E-06
 -1       615-8.14167E-05 4.44616E-05-3.72191E-06
 -1       616-2.47632E-04 1.71347E-04-2.56710E-06
 -1       617-7.37805E-06 3.49342E-06 1.51139E-07
 -1       618-5.86863E-05 1.32790E-04 1.15083E-05
 -1       619-7.46489E-05 2.07063E-04 1.48154E-05
 -1       620-8.79248E-05 3.25093E-04 1.49700E-05
 -1       621-9.41748E-05 4.63277E-04 1.13438E-05
 -1       622-1.45759E-04 3.06087E-04 9.74816E-06
 -1       623-8.95888E-05 6.83763E-04 8.31730E-06
 -1       624-8.19901E-05 9.00033E-04 5.46076E-06
 -1       625-1.75521E-04 6.37023E-04 8.30160E-06
 -1       626-7.75097E-05 1.07315E-03 4.27705E-06
 -1       627-7.49348E-05 1.24023E-03 3.42422E-06
 -1       628-1.78882E-04 1.02150E-03 5.44857E-06
 -1       629-1.38202E-03 1.00120E-03 1.98706E-05
 -1       630-1.53857E-03 9.85647E-04 1.98513E-05
 -1       631-1.57364E-03 8.85108E-04 1.75786E-05
 -1       632-1.52306E-03 6.03344E-05 6.63834E-06
 -1       633-1.88355E-03 6.82269E-04 1.57959E-05
 -1       634-1.65618E-03 5.64644E-04 1.34635E-05
 -1       635-9.74566E-04 1.28127E-03 1.35468E-05
 -1       636-1.06184E-03 1.23434E-03 1.59959E-05
 -1       637-1.36700E-03 6.35095E-05 4.56717E-06
 -1       638-1.14583E-03 7.82005E-05 1.29733E-06
 -1       639-1.06256E-03 1.14389E-03 1.61581E-05
 -1       640-2.05605E-05-5.71247E-06-4.79288E-06
 -1       641-5.50858E-05 5.70997E-05 1.88790E-06
 -1       642-7.24329E-05 1.09879E-04 6.78843E-06
 -1       643-2.03049E-04 1.34777E-03 4.37778E-06
 -1       644-9.83714E-05 1.39805E-03 3.12661E-06
 -1       645-1.28488E-03 1.00865E-03 1.89558E-05
 -1       646-1.31404E-03 9.14130E-04 1.70242E-05
 -1       647-1.19363E-03 1.01426E-03 1.74908E-05
 -1       648-9.79030E-05 1.51893E-03 2.90697E-06
 -1       649-1.12082E-04 1.60266E-03 2.96118E-06
 -1       650-6.68259E-04 1.41080E-03 8.96693E-06
 -1       651-8.07589E-04 1.42047E-03 1.03599E-05
 -1       652-8.58888E-04 1.32277E-03 1.14672E-05
 -1       653-9.32802E-04 1.46983E-03 1.15030E-05
 -1       654-3.39745E-04 1.33672E-03 5.69280E-06
 -1       655-5.25056E-04 1.36979E-03 7.53482E-06
 -1       656-1.41222E-03 2.71370E-04 7.72545E-06
 -1       657-1.06352E-03 2.51103E-04 3.05333E-06
 -1       658-3.13015E-04 1.17955E-03 5.97032E-06
 -1       659-5.87108E-04 1.22010E-03 8.49784E-06
 -1       660-9.76558E-04 1.53139E-03 1.15670E-05
 -1       661-8.31558E-04 4.02891E-04 3.57627E-06
 -1       662-7.08819E-04 3.92867E-04 2.40774E-06
 -1       663-8.44505E-04 1.22332E-03 1.16767E-05
 -1       664-3.08334E-04 1.01440E-03 6.40969E-06
 -1       665-9.46415E-04 1.06170E-03 1.32799E-05
 -1       666-1.05078E-03 1.01852E-03 1.48595E-05
 -1       667-5.83856E-04 3.77551E-04 1.39438E-06
 -1       668-4.69586E-04 3.56491E-04 8.52591E-07
 -1       669-6.77173E-04 5.55783E-04 5.65483E-06
 -1       670-1.38239E-04 1.69997E-04 4.07783E-06
 -1       671-3.10431E-04 5.69390E-04 7.39339E-06
 -1       672-3.32667E-04 7.67535E-04 7.06422E-06
 -1       673-5.55546E-04 1.12450E-03 8.17374E-06
 -1       674-6.98602E-04 1.17413E-03 9.70718E-06
 -1       675-8.10731E-04 1.13190E-03 1.13484E-05
 -1       676-4.69680E-04 9.36656E-04 7.34897E-06
 -1       677-2.06249E-04 2.16111E-04 2.22972E-06
 -1       678-1.88431E-04 2.52750E-04 5.64072E-06
 -1       679-2.14838E-04 3.60674E-04 6.89879E-06
 -1       680-3.11921E-04 2.50789E-04-3.49224E-07
 -1       681-1.99595E-05 4.04639E-06-2.08100E-06
 -1       682-1.01141E-03 4.33532E-04 5.93713E-06
 -1       683-5.73494E-04 8.93155E-04 8.12729E-06
 -1       684-1.48900E-03 7.47724E-04 1.48569E-05
 -1       685-1.40150E-03 4.58293E-04 1.01850E-05
 -1       686-1.07032E-03 9.30188E-04 1.41787E-05
 -1       687-7.94711E-04 1.00655E-03 1.08866E-05
 -1       688-4.04985E-04 4.19262E-04 3.83671E-06
 -1       689-3.71986E-04 4.96465E-04 5.45558E-06
 -1       690-1.25395E-03 4.52814E-04 8.69081E-06
 -1       691-1.01588E-03 6.07914E-04 8.83808E-06
 -1       692-1.33218E-03 7.67752E-04 1.43620E-05
 -1       693-1.23327E-03 7.78584E-04 1.37261E-05
 -1       694-1.01110E-03 7.45965E-04 1.08787E-05
 -1       695-8.68145E-04 7.52214E-04 9.45445E-06
 -1       696-6.97636E-04 8.20982E-04 8.65617E-06
 -1       697-5.20793E-04 6.17014E-04 6.10308E-06
 -1       698-7.48155E-04 7.33847E-04 8.28832E-06
 -1       699-1.42578E-03 1.26385E-03 2.17953E-05
 -1       700-1.42634E-03 1.26224E-03 4.62747E-06
 -1       701-1.26163E-03 1.32240E-03 1.74969E-05
 -1       702-1.26200E-03 1.32076E-03 7.02448E-06
 -1       703-1.32703E-03 1.27906E-03 1.25694E-05
 -1       704-1.23523E-03 1.73857E-03 1.27856E-05
 -1       705-1.23563E-03 1.78416E-03 1.31318E-05
 -1       706-1.23399E-03 1.45405E-03 1.16165E-05
 -1       707-1.23374E-03 1.49547E-03 1.30729E-05
 -1       708-1.23527E-03 1.66020E-03 1.29306E-05
 -1       709-1.23464E-03 1.57172E-03 1.27023E-05
 -1       710-1.23534E-03 1.74029E-03 1.29262E-05
 -1       711-1.23375E-03 1.49695E-03 1.25365E-05
 -1       712-1.23471E-03 1.61497E-03 1.27141E-05
 -1       713 1.62352E-04 1.86693E-03 4.62948E-07
 -1       714-1.14118E-03 1.86554E-03 1.20340E-05
 -1       715-1.14644E-03 1.86378E-03 1.24110E-05
 -1       716 1.23428E-04 1.86854E-03 6.68792E-07
 -1       717-3.38836E-04 1.86702E-03 4.62672E-06
 -1       718-1.35580E-04 1.86726E-03 2.84417E-06
 -1       719-6.74146E-04 1.86758E-03 7.69418E-06
 -1       720-5.00914E-04 1.86730E-03 6.07598E-06
 -1       721-9.99113E-04 1.86495E-03 1.09680E-05
 -1       722-1.08923E-03 1.86504E-03 1.16798E-05
 -1       723-9.93829E-04 1.86675E-03 1.05679E-05
 -1       724-8.87897E-04 1.86598E-03 9.85159E-06
 -1       725-8.05230E-04 1.86738E-03 8.97649E-06
 -1       726 1.54563E-05 1.86762E-03 1.58069E-06
 -1       727-8.58933E-04 1.86789E-03 9.36392E-06
 -1       728 1.33715E-04 2.19344E-04 1.60340E-05
 -1       729 1.23039E-04 2.16055E-04 2.00856E-06
 -1       730 1.41598E-04 2.25579E-04-9.87783E-06
 -1       731 2.07636E-04 3.87592E-04-9.53790E-06
 -1       732 2.07523E-04 3.80130E-04 1.14660E-05
 -1       733 2.70466E-04 1.77505E-03-6.35459E-07
 -1       734 2.70272E-04 1.77035E-03-4.45790E-07
 -1       735 2.70491E-04 1.77113E-03-5.31442E-07
 -1       736 2.70887E-04 1.67824E-03-7.32415E-07
 -1       737 2.70766E-04 1.67047E-03-4.49712E-07
 -1       738 2.36605E-04 5.44067E-04 6.23468E-06
 -1       739 2.70318E-04 9.34822E-04-1.02694E-06
 -1       740 2.58323E-04 7.20802E-04-9.91001E-07
 -1       741 2.72992E-04 1.43189E-03-7.78209E-07
 -1       742 2.74218E-04 1.27013E-03-9.58303E-07
 -1       743 2.71883E-04 1.55892E-03-8.71826E-07
 -1       744 2.41712E-04 5.74262E-04-5.48275E-06
 -1       745 2.71781E-04 1.54864E-03-4.93244E-07
 -1       746 2.74298E-04 1.12200E-03-1.00816E-06
 -1       747 0.00000E+00 0.00000E+00 0.00000E+00
 -1       748 0.00000E+00 0.00000E+00 0.00000E+00
 -1       749 0.00000E+00 0.00000E+00 0.00000E+00
 -1       750 0.00000E+00 0.00000E+00 0.00000E+00
 -1       751 0.00000E+00 0.00000E+00 0.00000E+00
 -1       752 0.00000E+00 0.00000E+00 0.00000E+00
 -1       753 0.00000E+00 0.00000E+00 0.00000E+00
 -1       754 0.00000E+00 0.00000E+00 0.00000E+00
 -1       755 0.00000E+00 0.00000E+00 0.00000E+00
 -1       756 0.00000E+00 0.00000E+00 0.00000E+00
 -1       757 0.00000E+00 0.00000E+00 0.00000E+00
 -1       758 0.00000E+00 0.00000E+00 0.00000E+00
 -1       759 0.00000E+00 0.00000E+00 0.00000E+00
 -1       760 0.00000E+00 0.00000E+00 0.00000E+00
 -1       761 0.00000E+00 0.00000E+00 0.00000E+00
 -1       762 0.00000E+00 0.00000E+00 0.00000E+00
 -1       763 0.00000E+00 0.00000E+00 0.00000E+00
 -1       764 0.00000E+00 0.00000E+00 0.00000E+00
 -1       765 0.00000E+00 0.00000E+00 0.00000E+00
 -1       766 0.00000E+00 0.00000E+00 0.00000E+00
 -1       767-2.23795E-03-6.13314E-04 1.09476E-05
 -1       768-2.23716E-03-6.13521E-04 1.19559E-05
 -1       769-2.23672E-03-6.14584E-04 1.34947E-05
 -1       770-2.07950E-03-6.03388E-04 1.38046E-05
 -1       771-2.08381E-03-6.01650E-04 9.40147E-06
 -1       772-2.40775E-04-1.73028E-04-1.90569E-05
 -1       773-2.53768E-04-2.03985E-04 2.24557E-05
 -1       774-1.89592E-03-5.85083E-04 7.39924E-06
 -1       775-1.30564E-03-5.14778E-04 5.96234E-06
 -1       776-1.52848E-03-5.45393E-04 7.56170E-06
 -1       777-8.55563E-04-4.32303E-04 2.25379E-06
 -1       778-1.07665E-03-4.77380E-04 4.04552E-06
 -1       779-4.32517E-04-3.07705E-04 2.32522E-06
 -1       780-1.90133E-03-5.86745E-04 1.31566E-05
 -1       781-1.72225E-03-5.67735E-04 8.98599E-06
 -1       782-6.35697E-04-3.77512E-04 1.98052E-06
 -1       783-2.36567E-03 1.20125E-03 1.71909E-05
 -1       784-2.36807E-03 1.21689E-03 2.07023E-05
 -1       785-2.39630E-03-4.51249E-04 1.21964E-05
 -1       786-2.35974E-03 1.12496E-03 1.88161E-05
 -1       787-2.34766E-03 9.90274E-04 2.05483E-05
 -1       788-2.33447E-03 8.42691E-04 1.94404E-05
 -1       789-2.34630E-03 9.75292E-04 1.57079E-05
 -1       790-2.33185E-03 8.08475E-04 1.61295E-05
 -1       791-2.32300E-03 4.06925E-04 1.63464E-05
 -1       792-2.32171E-03 5.88564E-04 1.67356E-05
 -1       793-2.35548E-03-3.82074E-05 1.48918E-05
 -1       794-2.33340E-03 2.16883E-04 1.53968E-05
 -1       795-2.38988E-03-3.76391E-04 1.60155E-05
 -1       796-2.32732E-03 7.45465E-04 1.75072E-05
 -1       797-2.37542E-03-2.30478E-04 1.37014E-05
 -1       798-1.67685E-03 1.30956E-03 2.08838E-05
 -1       799-2.22958E-03 1.36930E-03 1.94728E-05
 -1       800-2.18693E-03 1.36561E-03 1.66126E-05
 -1       801-2.18808E-03 1.36570E-03 1.79531E-05
 -1       802-2.05255E-03 1.35739E-03 1.99917E-05
 -1       803-1.97368E-03 1.34701E-03 1.37914E-05
 -1       804-1.90681E-03 1.34207E-03 2.00717E-05
 -1       805-1.66546E-03 1.30594E-03 8.47448E-06
 -1       806-1.85668E-03 1.33392E-03 1.19408E-05
 -1       807-1.89529E-03 1.34046E-03 1.63454E-05
 -1       808-1.66575E-03 1.30612E-03 1.45379E-05
 -1       809-1.79088E-03 1.32764E-03 2.03273E-05
 -1       810-2.20986E-03-8.89978E-05 1.35958E-05
 -1       811-2.22052E-03-2.85705E-04 1.28644E-05
 -1       812-2.22482E-03-4.36885E-04 1.29482E-05
 -1       813-6.96547E-04 1.19528E-03 7.06401E-06
 -1       814-5.53469E-04 1.14662E-03 5.75694E-06
 -1       815-6.32258E-04 1.27598E-03 6.54314E-06
 -1       816-4.89887E-04 1.23101E-03 5.30271E-06
 -1       817-2.05504E-03-8.09685E-05 1.26556E-05
 -1       818-3.26539E-04 1.42159E-03 3.30699E-06
 -1       819-3.89570E-04 1.26530E-03 3.20602E-06
 -1       820-3.45750E-04 1.20826E-03 4.85130E-06
 -1       821-4.29488E-04 1.38441E-03 4.95588E-06
 -1       822-7.76958E-04 1.58367E-03 8.27751E-06
 -1       823-7.25877E-04 1.73490E-03 8.03278E-06
 -1       824-8.09457E-04 1.73499E-03 8.62605E-06
 -1       825-9.10452E-04 1.71708E-03 9.96761E-06
 -1       826-1.26840E-03 9.22929E-04 1.13458E-05
 -1       827-1.30449E-03 1.01382E-03 1.17042E-05
 -1       828-1.20228E-03 9.58906E-04 8.14101E-06
 -1       829-1.33702E-03 8.67089E-04 1.15554E-05
 -1       830-1.22960E-03 8.14930E-04 9.14870E-06
 -1       831-1.26744E-03 9.04901E-04 8.70017E-06
 -1       832-4.14975E-04 6.11473E-04 4.33031E-06
 -1       833-2.53206E-04 4.76770E-04 2.87572E-06
 -1       834-3.09483E-04 4.08780E-04 3.11131E-06
 -1       835 1.50727E-04 1.19631E-03-4.03856E-08
 -1       836-2.44664E-04 1.15382E-03 3.35881E-06
 -1       837-1.72463E-04 1.08996E-03 3.09731E-06
 -1       838-2.25882E-04 1.04096E-03 3.10005E-06
 -1       839-1.71005E-04 1.18328E-03 2.51588E-06
 -1       840-2.25377E-04 1.13455E-03 2.54980E-06
 -1       841-1.53403E-04 1.07052E-03 2.20585E-06
 -1       842-4.61061E-04 7.56985E-04 4.81948E-06
 -1       843-5.95451E-04 6.78222E-04 5.97807E-06
 -1       844 1.78128E-06-1.19555E-06 9.45620E-08
 -1       845-1.46645E-07-2.64477E-06 3.60158E-07
 -1       846-4.52133E-04 1.19216E-03 3.70237E-06
 -1       847-4.18101E-04 1.15656E-03 2.74898E-06
 -1       848-3.08636E-04 1.16922E-03 3.34501E-06
 -1       849-2.75132E-04 1.13379E-03 2.49869E-06
 -1       850-3.37311E-04 1.05792E-03 2.82361E-06
 -1       851-2.19321E-03 4.91331E-05 1.42998E-05
 -1       852-2.04230E-03 5.67080E-05 1.33449E-05
 -1       853-1.22973E-03 9.94394E-04 1.45827E-05
 -1       854-1.25849E-03 8.49744E-04 1.31337E-05
 -1       855-1.29588E-03 9.40372E-04 1.44306E-05
 -1       856-1.16193E-03 9.98357E-04 1.09481E-05
 -1       857-1.18698E-03 8.56419E-04 1.07003E-05
 -1       858-1.15082E-03 9.26999E-04 1.30403E-05
 -1       859-1.59096E-05-7.08737E-06 1.63410E-07
 -1       860-5.36030E-06-3.62639E-06 1.57575E-07
 -1       861-1.08851E-05-1.32971E-05-1.63299E-06
 -1       862-1.16792E-05-1.47580E-05 4.38905E-06
 -1       863-6.38437E-06-1.04232E-05 2.27438E-06
 -1       864-1.16082E-03 5.60930E-04 9.76741E-06
 -1       865-1.12301E-03 7.05570E-04 9.89850E-06
 -1       866-9.30945E-04 5.33886E-04 8.29404E-06
 -1       867-9.04790E-04 6.71570E-04 8.36669E-06
 -1       868-5.73631E-04 3.64259E-04 5.39507E-06
 -1       869-6.83640E-04 5.06242E-04 6.37142E-06
 -1       870-4.38738E-04 3.99378E-04 4.17568E-06
 -1       871-2.35283E-04 1.34205E-03 2.30851E-06
 -1       872-5.05865E-04 1.57439E-03 5.80890E-06
 -1       873-6.38358E-04 1.57888E-03 7.00952E-06
 -1       874-5.87375E-04 1.71160E-03 6.72019E-06
 -1       875-1.48765E-03 9.20270E-04 1.48410E-05
 -1       876-1.46572E-03 9.48297E-04 1.17873E-05
 -1       877-1.53916E-03 1.00552E-03 1.35095E-05
 -1       878-1.39470E-03 9.31608E-04 1.50858E-05
 -1       879-1.46517E-03 9.87501E-04 1.73763E-05
 -1       880-1.44424E-03 1.01530E-03 1.36995E-05
 -1       881-1.80448E-03 1.85657E-04 1.22990E-05
 -1       882-1.61324E-03 2.08703E-04 1.14222E-05
 -1       883-1.84696E-03 8.00251E-05 1.21121E-05
 -1       884-2.11238E-04 1.21742E-03 3.71021E-06
 -1       885-2.12232E-04 1.12498E-03 4.44949E-06
 -1       886-3.44584E-04 1.11713E-03 5.70045E-06
 -1       887 1.52330E-04 1.35723E-03 7.80905E-08
 -1       888 2.90536E-05 1.11878E-03 9.29977E-07
 -1       889 1.46960E-04 1.04239E-03-8.60892E-08
 -1       890-5.99468E-04 2.14146E-04 5.28988E-06
 -1       891-7.17453E-04 3.43928E-04 6.38868E-06
 -1       892-1.36536E-03 8.95877E-04 9.30197E-06
 -1       893-1.36331E-03 1.02606E-03 7.87057E-06
 -1       894-6.41321E-04 5.94002E-04 6.21866E-06
 -1       895-1.10742E-03 1.08619E-03 1.06116E-05
 -1       896-1.12857E-03 1.01512E-03 7.76585E-06
 -1       897-1.14943E-03 1.16612E-03 7.02833E-06
 -1       898-1.18165E-03 1.15235E-03 1.12944E-05
 -1       899-1.20444E-03 1.08255E-03 7.34934E-06
 -1       900-1.32747E-03 8.05004E-04 9.70607E-06
 -1       901-1.19667E-04 1.32380E-04 1.49086E-06
 -1       902-1.28393E-04 2.54427E-04 1.88338E-06
 -1       903-2.12354E-04 2.40844E-04 2.31531E-06
 -1       904-1.14441E-03 1.25521E-03 1.48367E-05
 -1       905-1.14913E-03 1.16774E-03 1.49874E-05
 -1       906-1.04387E-03 1.20638E-03 1.28994E-05
 -1       907-1.52086E-04 1.09682E-03 9.73418E-07
 -1       908-1.84235E-04 9.80904E-04-3.18922E-07
 -1       909-2.18892E-03 2.23669E-04 1.48191E-05
 -1       910-1.78175E-04 9.08519E-04 6.64218E-07
 -1       911-2.95783E-04 9.50838E-04 2.46296E-06
 -1       912-3.65017E-04 8.44223E-04 2.36054E-06
 -1       913-3.76194E-04 9.13987E-04 1.60726E-06
 -1       914-8.07766E-04 1.53074E-03 7.67914E-06
 -1       915-8.75853E-04 1.45112E-03 7.93567E-06
 -1       916-9.21545E-04 1.53506E-03 8.77162E-06
 -1       917-5.69031E-04 1.42418E-03 6.22901E-06
 -1       918-8.08544E-04 5.22125E-04 7.37002E-06
 -1       919 3.20037E-05 1.28473E-03 9.92958E-07
 -1       920-1.07160E-04 1.79021E-03 2.53566E-06
 -1       921-3.10689E-04 1.79080E-03 4.29461E-06
 -1       922-1.45684E-03 8.84206E-04 9.40283E-06
 -1       923-1.42784E-03 8.55480E-04 1.16340E-05
 -1       924-1.49160E-03-2.10772E-04 8.79714E-06
 -1       925-1.38354E-03-3.81154E-04 7.21086E-06
 -1       926-1.60857E-03-4.06702E-04 8.75542E-06
 -1       927-1.25982E-03-1.86409E-04 7.37638E-06
 -1       928-1.15334E-03-3.48057E-04 5.56809E-06
 -1       929-9.95693E-04 1.32042E-03 9.19191E-06
 -1       930-9.25793E-04 1.27636E-03 7.45921E-06
 -1       931-1.01590E-03 1.24756E-03 9.99145E-06
 -1       932-1.01584E-03 1.32761E-03 7.45413E-06
 -1       933-1.10584E-03 1.29863E-03 9.66180E-06
 -1       934-1.03605E-03 1.25526E-03 7.66641E-06
 -1       935-2.36181E-04 1.37479E-03 3.85490E-06
 -1       936-3.18433E-04 1.54727E-03 4.10523E-06
 -1       937-2.26742E-04 1.46994E-03 3.22171E-06
 -1       938-7.55353E-04 7.15339E-05 5.79881E-06
 -1       939-8.51513E-04-1.26607E-04 4.92350E-06
 -1       940-9.34488E-04 5.64150E-05 6.76003E-06
 -1       941-1.03715E-03-1.56846E-04 6.18527E-06
 -1       942-1.14360E-03 1.61564E-03 1.17337E-05
 -1       943-1.14781E-03 1.63939E-03 1.19554E-05
 -1       944-1.17833E-03 1.55377E-03 1.19855E-05
 -1       945-1.05538E-03 1.63810E-03 1.07688E-05
 -1       946-1.08712E-03 1.55246E-03 1.04902E-05
 -1       947-1.09092E-03 1.57583E-03 1.11170E-05
 -1       948-2.18343E-03 1.19696E-03 1.79384E-05
 -1       949-1.98423E-03 1.21842E-03 1.87886E-05
 -1       950-1.14799E-03 1.68305E-03 1.19641E-05
 -1       951-1.02009E-03 1.06108E-03 1.23625E-05
 -1       952-1.01317E-03 1.01714E-03 7.39165E-06
 -1       953-9.53403E-04 1.14128E-03 9.29563E-06
 -1       954-1.03781E-03 1.16562E-03 7.40991E-06
 -1       955-1.10340E-03 1.42955E-03 1.01072E-05
 -1       956-1.16399E-03 1.37773E-03 8.72617E-06
 -1       957-1.16298E-03 1.37766E-03 1.06482E-05
 -1       958-1.18105E-03 1.43646E-03 1.03556E-05
 -1       959-1.18003E-03 1.43685E-03 1.14887E-05
 -1       960-1.58286E-04-6.22956E-05 2.25853E-05
 -1       961-6.76318E-05 2.50676E-05 1.09969E-06
 -1       962-2.69724E-05-8.90605E-06 4.32586E-07
 -1       963-6.25453E-05-1.33641E-05 1.02046E-06
 -1       964-1.12306E-03 8.91906E-04 8.35980E-06
 -1       965-7.71501E-04 1.51012E-03 8.80894E-06
 -1       966-7.06648E-04 1.49586E-03 7.47770E-06
 -1       967-8.36945E-04 1.36892E-03 9.63399E-06
 -1       968-7.71441E-04 1.35234E-03 7.93446E-06
 -1       969-8.60830E-04 2.19073E-04 6.95576E-06
 -1       970-1.97832E-03-2.78395E-04 1.17040E-05
 -1       971-1.98677E-03-4.36670E-04 1.29156E-05
 -1       972-1.80476E-03-4.23913E-04 1.00942E-05
 -1       973-2.07215E-03-4.32212E-04 1.07064E-05
 -1       974-1.17934E-03 1.50968E-03 1.14133E-05
 -1       975-1.08827E-03 1.47691E-03 9.77483E-06
 -1       976-9.41701E-05-4.72208E-05-1.43083E-05
 -1       977-1.17234E-03 1.40705E-03 1.21822E-05
 -1       978-1.17015E-03 1.52086E-03 1.26043E-05
 -1       979-1.17326E-03 1.40910E-03 1.37449E-05
 -1       980-1.57937E-03 1.20753E-03 1.14527E-05
 -1       981-1.53326E-03 1.17498E-03 1.54009E-05
 -1       982-1.65919E-03 1.18578E-03 1.53242E-05
 -1       983-1.56213E-03 1.10342E-03 1.31261E-05
 -1       984-1.68862E-03 1.10953E-03 1.36280E-05
 -1       985-1.64129E-03 1.07959E-03 1.59652E-05
 -1       986-2.03498E-03 3.03549E-04 1.41149E-05
 -1       987-9.24107E-04 1.36775E-03 9.16322E-06
 -1       988-9.46141E-04 1.32261E-03 1.11014E-05
 -1       989-8.17675E-04 1.26716E-03 9.70631E-06
 -1       990-9.63009E-04 1.41962E-03 1.08924E-05
 -1       991-9.45696E-04 7.50247E-04 9.54007E-06
 -1       992-1.00659E-03 9.32894E-04 1.14257E-05
 -1       993-1.20202E-03 1.33321E-03 8.52372E-06
 -1       994-1.12244E-03 1.32166E-03 7.41496E-06
 -1       995-9.39491E-04 1.01719E-03 9.01018E-06
 -1       996-4.53041E-05 3.72774E-05 8.59902E-07
 -1       997-3.92773E-06 2.35535E-05 2.02429E-07
 -1       998-1.55947E-05 1.16982E-06 2.45121E-07
 -1       999-3.42664E-04 2.35363E-04 3.39952E-06
 -1      1000-2.89614E-04 2.88135E-04 2.90431E-06
 -1      1001-1.65081E-03 9.00925E-04 1.53191E-05
 -1      1002-1.64974E-03 8.65796E-04 1.13580E-05
 -1      1003-1.74183E-03 8.28860E-04 1.41081E-05
 -1      1004-1.51365E-03 8.20953E-04 1.43471E-05
 -1      1005-1.51247E-03 7.87065E-04 1.10227E-05
 -1      1006 2.98805E-05 1.78482E-03 1.40476E-06
 -1      1007-9.28138E-05 1.70754E-03 2.32834E-06
 -1      1008-1.36288E-03 1.02762E-03 1.62788E-05
 -1      1009-1.29467E-03 1.08102E-03 1.66465E-05
 -1      1010-1.06816E-03 1.41425E-03 8.76384E-06
 -1      1011-1.58390E-03 1.03304E-03 1.12402E-05
 -1      1012-1.67165E-03 1.10538E-03 8.90231E-06
 -1      1013-1.66364E-03 1.00755E-03 1.39623E-05
 -1      1014-1.64733E-03 1.00438E-03 1.03037E-05
 -1      1015-1.75363E-03 1.07972E-03 1.24304E-05
 -1      1016-1.12812E-03 1.01697E-03 1.35809E-05
 -1      1017-9.09624E-04 1.51626E-03 1.01431E-05
 -1      1018-9.78027E-05 1.51355E-03 2.16368E-06
 -1      1019-9.81831E-05 1.39021E-03 2.08857E-06
 -1      1020-8.64846E-04 7.16235E-04 8.14779E-06
 -1      1021-1.00364E-03 8.96844E-04 7.72940E-06
 -1      1022-1.04593E-03 8.51197E-04 8.13473E-06
 -1      1023-9.28151E-04 8.97861E-04 8.79801E-06
 -1      1024-1.02350E-03 1.44820E-03 1.06261E-05
 -1      1025-1.00883E-03 1.35397E-03 1.06006E-05
 -1      1026-1.04708E-03 1.40400E-03 1.23563E-05
 -1      1027 9.29007E-06 1.69771E-05 6.00792E-07
 -1      1028 7.71763E-06 1.01198E-05-3.13134E-06
 -1      1029-3.16781E-06-7.19049E-06 2.82472E-07
 -1      1030-3.36424E-05 1.20701E-03 2.40014E-06
 -1      1031-3.74223E-05 1.03837E-03 2.84472E-06
 -1      1032-3.37883E-05 1.19924E-03 7.53792E-07
 -1      1033-1.01151E-03 1.41539E-03 9.55825E-06
 -1      1034-1.03267E-03 1.47965E-03 1.00514E-05
 -1      1035-9.96633E-04 1.46342E-03 9.06978E-06
 -1      1036 1.54441E-04 7.09929E-04-4.31707E-07
 -1      1037 8.43164E-05 4.45442E-04 8.00037E-06
 -1      1038 1.33640E-04 5.61952E-04-5.38881E-06
 -1      1039 2.56114E-05 6.20954E-04 6.44435E-07
 -1      1040 5.03793E-06 7.00086E-06 1.37968E-06
 -1      1041-1.88347E-03 6.47991E-04 1.44651E-05
 -1      1042-1.88195E-03 8.31971E-04 1.49361E-05
 -1      1043-1.20441E-04-1.62370E-05 2.10626E-06
 -1      1044-3.77588E-05-2.99475E-05 6.83991E-07
 -1      1045-6.63974E-05-4.55687E-05 1.17885E-05
 -1      1046-2.55768E-04 1.02082E-03 1.85444E-06
 -1      1047-2.88571E-04 1.05741E-03 2.96213E-06
 -1      1048-9.44032E-04 1.37460E-03 7.98833E-06
 -1      1049-8.58730E-04 1.35155E-03 7.40736E-06
 -1      1050-1.45393E-03 1.01734E-03 7.86386E-06
 -1      1051-1.09494E-03 1.39962E-03 1.07984E-05
 -1      1052-1.11434E-03 1.46131E-03 1.11895E-05
 -1      1053 1.37906E-04 1.78564E-03 5.19199E-07
 -1      1054-6.63394E-04 1.10103E-03 6.68556E-06
 -1      1055-5.52100E-04 9.47354E-04 5.49782E-06
 -1      1056-4.46687E-04 9.93172E-04 4.56568E-06
 -1      1057-1.14486E-03 1.25345E-03 7.51809E-06
 -1      1058-1.57038E-03-8.68700E-06 1.02087E-05
 -1      1059-1.68610E-03-2.25684E-04 9.97739E-06
 -1      1060 1.14530E-05 1.18292E-04 1.72889E-05
 -1      1061-2.03121E-03 8.28636E-04 1.58657E-05
 -1      1062-2.03060E-03 6.43157E-04 1.53395E-05
 -1      1063-1.20172E-03 1.33490E-03 1.49683E-05
 -1      1064-1.13364E-03 1.35428E-03 1.42685E-05
 -1      1065-1.18715E-03 6.30416E-04 9.81033E-06
 -1      1066-1.39819E-03 6.38041E-04 1.07961E-05
 -1      1067-1.08940E-03 1.46287E-03 1.22785E-05
 -1      1068-1.00681E-03 1.48082E-03 1.11202E-05
 -1      1069-1.00088E-03 1.56376E-03 1.03511E-05
 -1      1070-1.06575E-03 1.57748E-03 1.14279E-05
 -1      1071-1.08237E-03 1.54408E-03 1.12943E-05
 -1      1072-9.70311E-04 1.61576E-03 1.05947E-05
 -1      1073-1.74317E-05-1.72364E-05-2.62081E-06
 -1      1074-1.53505E-03 3.85202E-04 1.14833E-05
 -1      1075-1.80210E-03 3.73819E-04 1.31254E-05
 -1      1076-1.76212E-03 4.99536E-04 1.33243E-05
 -1      1077-2.03187E-03 4.89630E-04 1.48614E-05
 -1      1078-6.95578E-04 8.64985E-04 6.90006E-06
 -1      1079-8.27193E-04 7.92735E-04 7.99399E-06
 -1      1080-2.23292E-03-4.48062E-04 1.25732E-05
 -1      1081-1.15978E-03 3.78724E-05 7.86209E-06
 -1      1082-1.07581E-03 2.14329E-04 8.14177E-06
 -1      1083-9.81837E-04 1.63445E-03 9.93069E-06
 -1      1084-9.96518E-04 1.54016E-03 9.53296E-06
 -1      1085-1.27380E-03 2.31682E-04 9.40133E-06
 -1      1086-1.22405E-03 1.25483E-03 1.71498E-05
 -1      1087-1.18833E-03 1.31371E-03 1.16597E-05
 -1      1088-1.32600E-04 1.05928E-04 1.53943E-06
 -1      1089-1.14765E-03 1.76332E-03 1.21080E-05
 -1      1090-1.05297E-03 1.76423E-03 1.12016E-05
 -1      1091-1.00046E-03 1.76339E-03 1.06613E-05
 -1      1092-1.38285E-04 1.15501E-03 3.45460E-06
 -1      1093-1.07960E-04 1.25996E-03 1.16734E-06
 -1      1094-1.43249E-03 1.08390E-03 9.32976E-06
 -1      1095-1.47480E-03 1.11232E-03 5.88505E-06
 -1      1096-3.10646E-04 1.50934E-04 2.84097E-06
 -1      1097-2.99448E-04 5.40955E-05 2.16648E-06
 -1      1098-2.01018E-04 4.52912E-05 1.60537E-06
 -1      1099-2.00684E-04 1.27030E-04 2.03115E-06
 -1      1100-4.53364E-04 5.28311E-04 4.59536E-06
 -1      1101-9.31271E-04-3.07923E-04 4.14949E-06
 -1      1102-7.13759E-04-2.57500E-04 2.43520E-06
 -1      1103-1.11822E-03 1.33053E-03 1.20277E-05
 -1      1104-9.32865E-04 1.22587E-03 1.12599E-05
 -1      1105-1.05604E-03 1.30011E-03 1.28473E-05
 -1      1106-1.57830E-03 1.20638E-03 5.35259E-06
 -1      1107-1.44592E-03 1.17954E-03 6.63170E-06
 -1      1108-1.07899E-04 1.26764E-03 2.75772E-06
 -1      1109-2.18334E-03 7.49785E-04 1.64949E-05
 -1      1110-2.18696E-03 8.46384E-04 1.77527E-05
 -1      1111-1.35391E-04 9.81852E-04 5.93396E-08
 -1      1112-2.74510E-05-2.54346E-05 8.49777E-06
 -1      1113-1.35711E-03 8.39978E-04 1.38356E-05
 -1      1114-1.58318E-04 9.53687E-04 2.20581E-06
 -1      1115-1.76924E-04 9.73790E-04 3.30510E-06
 -1      1116-1.04312E-04 1.00430E-03 2.30622E-06
 -1      1117-1.38322E-03 3.81468E-04 1.05155E-05
 -1      1118-1.37311E-03 5.67175E-04 1.10731E-05
 -1      1119 2.13465E-05 7.15091E-05-1.07841E-05
 -1      1120 4.91491E-05 2.12241E-04-1.30534E-05
 -1      1121-8.90643E-04 1.58705E-03 9.34088E-06
 -1      1122-1.38404E-03 1.16384E-03 1.27626E-05
 -1      1123-1.28517E-03 1.17895E-03 6.33574E-06
 -1      1124-1.29509E-03 1.07931E-03 7.28788E-06
 -1      1125-1.14784E-03 1.63772E-03 1.19921E-05
 -1      1126-2.09116E-04 1.60727E-03 3.22380E-06
 -1      1127-1.22441E-03 1.25312E-03 6.48249E-06
 -1      1128-5.71587E-06 5.09167E-05 3.23102E-07
 -1      1129 9.48683E-05 3.73293E-04-1.03909E-05
 -1      1130-1.94508E-04 3.08074E-04 2.42135E-06
 -1      1131-1.46102E-04 3.70430E-04 2.28588E-06
 -1      1132-1.30443E-04 3.59209E-05 1.10346E-06
 -1      1133-4.71857E-04 2.04513E-04 4.31184E-06
 -1      1134-2.48309E-04 9.49913E-04 2.71912E-06
 -1      1135-1.43144E-03 1.08589E-03 1.92747E-05
 -1      1136-1.16369E-03 3.81508E-04 9.33453E-06
 -1      1137-7.85203E-04 1.17636E-03 9.39576E-06
 -1      1138-8.03741E-04 1.08850E-03 7.95381E-06
 -1      1139-9.26402E-04 1.18476E-03 7.10188E-06
 -1      1140-1.72050E-03 1.07857E-03 1.84189E-05
 -1      1141-1.75530E-03 9.70542E-04 1.71638E-05
 -1      1142-1.59282E-03 1.07459E-03 1.90486E-05
 -1      1143-1.62770E-03 9.70808E-04 1.73597E-05
 -1      1144-6.15294E-04 8.06301E-05 5.09843E-06
 -1      1145-4.83626E-04 8.51666E-05 4.14449E-06
 -1      1146-1.28472E-03 1.18063E-03 1.79599E-05
 -1      1147-1.44521E-03 1.18114E-03 1.98353E-05
 -1      1148-6.34297E-04-8.54021E-05 3.68327E-06
 -1      1149-7.83269E-04 1.19738E-03 6.39009E-06
 -1      1150-2.04661E-04-2.20026E-05 5.81609E-07
 -1      1151-3.39327E-04-3.49210E-05 2.39086E-06
 -1      1152-2.11157E-04-7.01708E-05-1.95278E-05
 -1      1153-9.22055E-04 1.73593E-03 9.68692E-06
 -1      1154 1.42659E-05 5.74421E-05 1.08049E-05
 -1      1155-8.47841E-06 9.74225E-05 1.18157E-06
 -1      1156 1.58657E-05 3.41242E-05-6.04733E-06
 -1      1157 3.18158E-06 8.83269E-07-2.57454E-07
 -1      1158-4.84017E-04-5.75945E-05 3.70628E-06
 -1      1159 3.32628E-05 1.41030E-03 1.08191E-06
 -1      1160-2.10974E-04 9.56144E-04 4.93148E-06
 -1      1161-2.66928E-04 9.70240E-04 3.85062E-06
 -1      1162-2.32437E-04 8.64091E-04 4.92663E-06
 -1      1163-3.65323E-04 1.02900E-03 5.49339E-06
 -1      1164-7.59394E-04 6.13051E-04 7.10268E-06
 -1      1165-2.18249E-03 4.12866E-04 1.53913E-05
 -1      1166 1.52612E-04 1.48419E-03 1.78519E-07
 -1      1167 1.52412E-04 1.60040E-03 2.90497E-07
 -1      1168-1.69286E-03 1.22536E-03 1.26286E-05
 -1      1169-2.18093E-03 5.93310E-04 1.60554E-05
 -1      1170-1.27380E-03 7.05493E-04 1.19029E-05
 -1      1171-3.42045E-06 1.46373E-06 3.31348E-07
 -1      1172-1.38141E-03 2.18151E-05 9.15780E-06
 -1      1173-1.77388E-03 1.20032E-03 1.60617E-05
 -1      1174-2.15911E-04 7.49118E-04 4.20915E-07
 -1      1175-1.63756E-04 7.32810E-04 1.95310E-06
 -1      1176-1.31999E-04 7.50175E-04-3.24053E-07
 -1      1177-2.00195E-04 8.80995E-04 3.06658E-06
 -1      1178-1.45185E-04 8.67105E-04 4.58807E-06
 -1      1179-1.75751E-03 1.19587E-03 1.10797E-05
 -1      1180-5.16577E-04-1.99942E-04 2.28493E-06
 -1      1181-8.74331E-05 9.14262E-04 9.93659E-08
 -1      1182-1.20401E-03 1.08425E-03 1.52473E-05
 -1      1183 1.52581E-04 1.60550E-03 2.77204E-07
 -1      1184-1.85739E-03-5.55552E-05 1.16250E-05
 -1      1185-1.43686E-04 1.03970E-03 3.84055E-06
 -1      1186-1.42597E-03 2.32088E-04 1.02517E-05
 -1      1187-8.42721E-04 3.51928E-04 7.30146E-06
 -1      1188-9.74712E-04 3.56634E-04 8.15493E-06
 -1      1189-4.19848E-04 1.73074E-03 5.21272E-06
 -1      1190-1.14826E-03 7.76018E-04 8.93534E-06
 -1      1191 1.37966E-04 1.68890E-03 4.54945E-07
 -1      1192 4.85051E-05 2.73793E-04 1.37585E-05
 -1      1193-1.06248E-05 2.90177E-04 1.74419E-06
 -1      1194 4.66275E-06 4.44526E-04 8.78753E-07
 -1      1195-6.00743E-05 8.20700E-05 1.29699E-06
 -1      1196-5.78947E-05 1.70601E-04 1.39152E-06
 -1      1197-1.22506E-05 1.68948E-04 8.10732E-07
 -1      1198-1.05817E-03 1.76247E-03 1.11957E-05
 -1      1199-7.55772E-05 2.66471E-04 1.73836E-06
 -1      1200 1.95587E-05 1.61515E-03 1.35024E-06
 -1      1201 1.62433E-04 1.77041E-03 3.75982E-07
 -1      1202 4.43321E-05 8.42895E-04 3.39870E-07
 -1      1203-2.47662E-05 8.06444E-04-1.19120E-06
 -1      1204-2.01585E-05 9.48704E-04 1.15526E-06
 -1      1205-4.57539E-05 9.19364E-04 3.55324E-06
 -1      1206-2.30909E-04 2.04297E-04 2.48763E-06
 -1      1207 1.37366E-04 8.51557E-04-2.46336E-07
 -1      1208 3.38358E-05 1.53122E-03 1.16266E-06
 -1      1209-3.28671E-04 9.88213E-04 3.56903E-06
 -1      1210-1.16979E-03 1.52244E-03 1.21267E-05
 -1      1211-1.58169E-04 5.21324E-04 2.11748E-06
 -1      1212-7.38673E-05 4.00371E-04 1.34762E-06
 -1      1213-1.78487E-03 1.20149E-03 1.97435E-05
 -1      1214-1.88950E-03 1.21215E-03 1.65368E-05
 -1      1215-1.37069E-03 1.07049E-03 1.37979E-05
 -1      1216-1.75457E-03 9.34094E-04 1.29640E-05
 -1      1217-3.08937E-04 6.56991E-04 3.29769E-06
 -1      1218-3.45591E-04-1.40725E-04 2.28984E-06
 -1      1219-1.87325E-03 1.20772E-03 1.27040E-05
 -1      1220-1.86237E-03 1.08858E-03 1.83009E-05
 -1      1221-1.16218E-03 7.85384E-04 1.17810E-05
 -1      1222-1.89725E-03 9.76293E-04 1.72007E-05
 -1      1223-2.01880E-03 1.09587E-03 1.76577E-05
 -1      1224-2.18241E-03 8.89202E-04 1.60573E-05
 -1      1225-1.53107E-03 1.17503E-03 2.14184E-05
 -1      1226-1.65830E-03 1.18648E-03 2.03187E-05
 -1      1227-2.20023E-03 1.22007E-03 1.75836E-05
 -1      1228-4.09258E-04 9.51935E-04 2.81472E-06
 -1      1229-2.02585E-03 1.21275E-03 1.49990E-05
 -1      1230-5.56369E-05 7.03820E-04 5.00751E-06
 -1      1231-7.84606E-05 5.63598E-04 1.34410E-06
 -1      1232-7.27132E-04 2.18609E-04 6.21389E-06
 -1      1233-8.02433E-05 1.03284E-03 4.60308E-07
 -1      1234-4.08071E-04 1.13419E-03 5.55512E-06
 -1      1235-3.07659E-04 1.07724E-03 3.91934E-06
 -1      1236-1.62299E-03 6.76796E-04 1.30137E-05
 -1      1237-1.90333E-03 1.08365E-03 1.40733E-05
 -1      1238-2.03297E-03 9.73287E-04 1.63123E-05
 -1      1239-2.19228E-03 9.94056E-04 1.80695E-05
 -1      1240-3.86187E-04 7.87212E-04 5.47950E-06
 -1      1241-1.31624E-03 1.24175E-03 1.24562E-05
 -1      1242-2.18181E-03 1.12112E-03 1.75074E-05
 -3
    1PSTEP                         2           1           1          
  100CL  101 1.000000000        1242                     0    1           1
 -4  STRESS      6    1
 -5  SXX         1    4    1    1
 -5  SYY         1    4    2    2
 -5  SZZ         1    4    3    3
 -5  SXY         1    4    1    2
 -5  SYZ         1    4    2    3
 -5  SZX         1    4    3    1
 -1         1 3.68768E-01 8.27878E-03-2.20199E-02-1.50879E-01 2.03513E-03 3.27718E-02
 -1         2 3.52119E-01 1.33049E-02-2.21362E-02-1.71304E-01 8.95834E-03-4.10380E-02
 -1         3 3.28198E-03-6.22315E-03 1.52381E-03-3.40027E-03-1.19905E-03-2.91369E-04
 -1         4-3.29518E-03-8.83664E-03 1.10334E-03 3.01675E-03 7.87600E-04 5.29066E-04
 -1         5-5.96937E-03 2.80367E-03 9.33688E-04-4.75421E-03-1.26451E-04-8.07901E-04
 -1         6-5.58289E-03-2.67084E-04 5.09257E-04-8.85620E-03 7.48465E-05 8.24817E-04
 -1         7 6.58210E+00 4.42667E+00 2.06800E+00 3.21107E+00-6.75910E-01-4.00338E-01
 -1         8 4.96782E+00 5.76444E+00 2.36110E+00 3.08076E+00 7.03565E-01 4.30111E-01
 -1         9-3.21772E-02-1.03606E-01-2.98725E-02-3.07749E-02 1.45943E-02 1.16093E-02
 -1        10 4.72565E-07 1.10036E-06 3.46044E-07 4.43279E-07 1.01812E-07 1.02738E-07
 -1        11-6.45527E+00-7.28176E+00-3.02216E+00-4.27410E+00 5.62292E-01 8.80146E-01
 -1        12-5.98603E+00-6.48004E+00-2.74254E+00-4.02772E+00-4.35874E-01-6.69628E-01
 -1        13 1.94098E-01-2.97292E-01-9.68348E-03-1.82594E-01 5.23706E-03-5.49426E-03
 -1        14 1.98408E-01-1.21070E-01 1.73279E-03-2.79460E-01 2.45333E-02 2.29055E-02
 -1        15-1.42656E-01 2.21074E-01 1.40480E-02-1.40741E-01 2.52421E-02-2.04191E-02
 -1        16-2.32648E-01 1.92313E-01 1.10640E-02-2.79034E-01-2.45285E-02 4.51119E-02
 -1        17 8.21875E-02 1.87005E+00 3.97707E-04-2.61843E-01 4.08211E-02-1.96977E-02
 -1        18 1.26289E-01 1.83879E+00 1.62828E-02-3.10923E-01-3.31018E-02 1.74439E-02
 -1        19 1.98937E-03 8.68982E-01-6.26175E-03 4.52268E-02-4.12477E-03 2.73813E-03
 -1        20-7.28405E-01-3.75568E-02-1.50378E-02-5.54229E-01-4.24271E-03-2.29951E-03
 -1        21-3.93518E-01-5.48358E-03-5.98866E-03-5.32330E-01-3.71468E-04 1.29759E-02
 -1        22 1.23685E-01 3.84674E-03 4.18514E-03-5.26415E-01-1.17843E-03 1.00525E-02
 -1        23 6.51142E-01 7.70296E-03 7.53617E-03-5.47150E-01-2.08216E-03 2.88531E-04
 -1        24 6.69453E-01 1.55203E-01 3.39382E-02-5.61997E-01-1.64711E-02-3.03747E-04
 -1        25-1.12698E-01-6.61048E-01-1.89870E-02 7.04095E-02 1.07819E-02-1.05064E-02
 -1        26-6.37169E-03-8.65144E-01 5.98673E-03 2.20432E-02 1.05909E-02 2.63708E-03
 -1        27 1.06562E-02-1.14305E+00 3.11485E-03 1.18497E-02 8.07969E-03 2.16536E-03
 -1        28 6.33601E-02-1.76190E+00 1.98485E-02 4.59048E-02 2.32964E-02 1.17121E-02
 -1        29 8.82297E-01-2.98974E+00 6.48660E-01 5.09291E-01-2.31001E-01-5.44022E-03
 -1        30-1.91120E+00-6.49669E-01-5.82277E-01-1.01249E+00 4.81782E-02 4.31379E-01
 -1        31-3.21158E-01-1.40488E-01-6.97909E-02-2.93296E-01-1.05589E-02 7.89189E-02
 -1        32 4.84742E-03-1.41954E-01-3.82965E-02 1.32724E-01-8.66931E-03 1.56755E-02
 -1        33 4.58256E-01 1.18036E+00 2.63645E-01 6.42628E-01-3.92913E-01 2.90175E-02
 -1        34 1.58224E+00-1.90348E-01-1.37238E-01-5.15812E-02-9.40320E-03 1.51123E-01
 -1        35 4.83325E-01-2.34515E-02 2.13699E-03 2.44066E-02-1.11603E-03-1.96946E-03
 -1        36 7.42604E-02-3.19084E-02-9.46068E-03-3.49096E-02-4.90627E-03-2.54845E-03
 -1        37-5.52996E-02-9.46799E-03 3.91060E-04-1.63149E-02-4.37224E-04-1.89399E-03
 -1        38-3.29681E-02-4.93522E-03-9.82062E-04-7.97176E-03-5.10758E-04-1.54874E-03
 -1        39 3.83930E-03-4.72316E-03 8.03484E-04-1.97698E-02 1.15839E-03 6.00718E-05
 -1        40 9.84185E-04-9.98006E-03-6.05254E-04-9.01629E-03 1.29643E-03-1.61797E-05
 -1        41 4.56432E-03 5.05035E-03 5.78153E-04-1.25381E-02 1.47380E-03-6.86161E-04
 -1        42 9.24517E-04-3.24588E-02-8.74762E-04-1.41805E-02 7.63972E-04 3.77572E-04
 -1        43-2.35355E-03-4.46350E-02-8.25463E-04 2.31864E-03-1.83727E-03 8.85798E-04
 -1        44-9.32188E-03-1.87723E-03 6.54145E-04 1.69212E-02 5.04842E-04-5.56331E-03
 -1        45-2.10401E-03-2.06280E-02 1.15234E-03 1.70743E-02 2.65499E-03-5.10383E-03
 -1        46 8.64186E-01 1.41815E+00 5.51991E-02-8.83311E-01-4.79135E-02 1.93188E-02
 -1        47-1.76293E-02 1.06336E+00-1.99239E-02 5.87631E-03-7.88431E-03-7.83293E-03
 -1        48 1.57486E-01 7.11910E-01 1.94198E-02 1.11590E-01 1.07941E-02-3.30559E-03
 -1        49-6.26657E-01-1.77265E-01-1.72675E-02-6.20516E-01-4.85768E-03-6.60665E-03
 -1        50-2.80221E-01-8.37660E-03-4.59726E-03-5.40438E-01-3.24473E-03-1.21067E-02
 -1        51 2.99486E-01 6.62414E-03 2.46517E-04-5.34523E-01 2.06870E-03-8.11216E-03
 -1        52 8.41032E-01 4.93867E-02 1.47252E-02-5.64925E-01-6.04057E-03 2.21479E-04
 -1        53-3.72211E-02-8.38789E-01-2.60975E-02 1.15128E-01-1.52272E-02 2.36973E-03
 -1        54-1.44996E-02-8.67241E-01 7.35330E-04 2.81620E-02-4.29752E-03 2.35098E-03
 -1        55 2.01653E-02-1.21015E+00 3.96143E-03 2.29101E-02 7.97202E-04-4.64872E-04
 -1        56 1.26700E-01-1.87262E+00 5.04388E-02 7.01771E-02 1.42577E-02-1.94225E-02
 -1        57 4.51361E-01-4.13328E+00 3.72663E-01-3.93986E-01 2.06122E-01 1.70610E-02
 -1        58-1.71428E+00-7.17437E-01-4.49852E-01-9.71692E-01-3.16376E-03-3.28074E-01
 -1        59-2.68314E-01-2.10006E-01-6.90252E-02-2.80908E-01-3.56159E-03-6.01249E-02
 -1        60 8.65902E-02-1.04641E-01-1.36517E-02 1.15943E-01 1.37781E-02 1.55743E-02
 -1        61 4.81074E-01 1.28884E+00 3.43001E-01 5.09973E-01 2.29924E-01 1.11151E-03
 -1        62 2.01258E+00-1.30929E+00-7.32816E-01-4.01383E-01 8.95518E-02-1.77978E-01
 -1        63 6.68351E-01-9.65612E-02-1.56823E-02-4.69998E-02 5.46801E-03-2.23797E-02
 -1        64 5.16247E-02-1.31811E-02-1.44773E-03-1.63716E-03 1.69121E-03 6.48858E-03
 -1        65-4.12779E-02-4.49001E-03-2.56259E-03-3.71979E-03 1.10685E-03 2.58168E-03
 -1        66-3.24943E-02-2.55395E-03-4.91295E-04-7.68893E-03 4.97363E-04 1.94952E-03
 -1        67 1.05747E-03-1.36267E-02 1.02656E-04-1.81549E-02-1.54558E-03 2.61629E-05
 -1        68 7.25036E-04 9.85347E-03 5.99221E-04-1.13683E-02-7.79969E-05 1.79110E-04
 -1        69 4.68814E-03-2.02931E-02-8.22560E-04-1.74464E-02-5.20946E-04-2.83193E-04
 -1        70 3.29624E-03-4.63044E-02-2.84519E-04 1.25233E-03 1.85205E-03 1.61021E-04
 -1        71-2.93723E-02-2.68638E-02 9.77430E-04 3.60630E-02-2.87607E-04 6.96428E-03
 -1        72 8.62357E-01 1.41621E+00 5.67073E-02-8.82439E-01 4.80867E-02-1.84529E-02
 -1        73 3.66160E-01 2.14162E+00 7.59902E-02-5.96109E-01 9.57291E-04-1.52952E-03
 -1        74 4.33070E-01-9.38726E-02-6.38636E-02-1.49325E-01 2.93122E-03 3.29629E-03
 -1        75-6.76342E-03-1.59516E-02 5.49598E-03 4.26414E-03 7.46282E-04-3.45024E-04
 -1        76-5.27560E-03 2.14369E-03 3.78858E-03-6.62550E-03-3.05500E-04 1.09117E-03
 -1        77 4.21095E+00 4.99771E+00 1.64306E+00 2.65595E+00 8.62052E-03 4.64373E-02
 -1        78-1.79839E-02-6.83223E-02-1.95818E-02-1.95261E-02-5.44325E-03-1.15113E-03
 -1        79-5.65104E+00-6.06227E+00-2.06599E+00-3.56456E+00-4.07124E-02 7.70713E-03
 -1        80 2.97592E-01-1.78051E-01 1.08574E-02-2.87002E-01 2.39763E-02 1.63015E-02
 -1        81-3.74525E-01 1.90982E-01-8.60177E-03-2.40636E-01 4.10281E-03-1.03276E-02
 -1        82 1.59218E-01 6.61935E-01 6.94114E-04-4.84477E-01 3.45764E-03 2.25580E-03
 -1        83 1.70438E-02 2.29119E-01 1.65386E-03-4.18453E-01 4.60956E-03 1.77840E-03
 -1        84 4.40672E-03 3.86057E-02 6.98056E-03-7.09523E-01 4.04633E-03 5.58872E-03
 -1        85 1.05470E-01-4.18140E-03-4.03153E-03-7.58494E-01 6.74877E-04 5.10879E-03
 -1        86 2.06243E-01-4.53675E-02-5.13110E-03-6.45974E-01-1.84845E-03 8.31210E-03
 -1        87 2.06893E-04-3.31656E-01 3.61854E-03-2.58268E-01 6.79468E-04-4.56773E-03
 -1        88-2.36779E-02-7.60432E-01-1.12617E-03-2.67360E-01 4.37733E-04 9.66756E-04
 -1        89-7.43862E-02-1.29249E+00-9.06504E-03-4.47250E-01 6.84331E-04 1.28346E-02
 -1        90-5.72047E-01-2.05155E+00-2.72758E-02-1.23442E+00-1.60586E-02 2.83014E-02
 -1        91-2.36767E+00-9.70728E-01 4.54060E-01-1.97589E+00-1.68637E-01-2.04853E-01
 -1        92-2.21931E+00-1.07281E+00 1.88099E-01-2.24971E-01 7.43234E-03-3.19564E-02
 -1        93-4.23217E-01-3.99210E-01 5.26289E-02-1.01673E-01 1.08554E-02-4.68279E-02
 -1        94 5.71413E-02-2.70462E-01 8.90645E-03-3.94352E-02 1.10562E-02-1.29923E-02
 -1        95 3.88522E-01 8.69369E-01-6.13292E-02 1.21563E-02-4.11086E-02-5.24220E-02
 -1        96 3.52804E-01 2.70948E+00-1.38321E-01 5.97153E-01 1.46955E-01-4.65329E-02
 -1        97 8.35315E-01 7.06703E-01-3.04243E-01 1.37997E+00 8.94502E-02 1.11963E-01
 -1        98 6.71520E-01 1.02031E-01 9.21031E-03 4.89760E-01-7.86254E-03-4.31575E-03
 -1        99 1.01986E-01 4.89493E-02 2.64617E-03 1.10267E-01-2.81145E-03-2.70976E-03
 -1       100 2.73991E-02 2.38481E-02 6.09388E-04 1.66221E-02-4.97367E-04-5.72575E-04
 -1       101-1.09932E-02 1.26521E-01 5.52461E-04 1.72425E-02-5.83936E-04-1.08326E-03
 -1       102-2.96652E-02 1.64685E-01-4.66317E-04-3.70469E-02 3.25429E-04 4.26200E-04
 -1       103 1.64116E-02 1.17477E-01 8.58500E-04-6.92590E-02 1.20405E-03 3.72825E-04
 -1       104 6.67871E-02 4.37111E-02 1.34909E-03-4.61386E-02 8.28653E-04-9.22965E-04
 -1       105 1.07945E-01 1.73755E-01 1.25090E-03-1.97748E-01 4.33101E-03-2.27156E-03
 -1       106 4.61026E-01 8.51293E-01-1.52515E-02-3.29413E-01-1.78882E-03-2.06105E-02
 -1       107 1.33534E-01 8.01647E-01-1.28593E-02-4.51804E-01 5.68028E-03 2.26178E-03
 -1       108 1.38875E-02 9.71307E-01-8.41065E-03-1.59421E-01-4.50241E-03-5.79834E-03
 -1       109 2.47603E-01 2.25568E-01-1.67137E-03 4.35389E-01 1.30809E-03 2.82216E-03
 -1       110 1.61276E-01 1.59244E-01 4.52025E-03-6.85246E-01 7.81723E-04 1.49837E-03
 -1       111-7.36880E-01-2.25029E-01 1.43839E-03-8.20503E-01 2.38247E-03-6.61362E-03
 -1       112-2.09465E-01-3.39491E-01-3.80016E-03-6.89050E-01 3.04636E-03 2.51366E-03
 -1       113 5.05197E-03 3.45399E-02-2.29378E-04 4.00381E-03 4.28205E-04 5.48258E-04
 -1       114-2.70490E-02-2.29280E-01-1.37566E-03-6.58187E-01-4.31077E-04-8.77248E-04
 -1       115-1.29816E+00 1.66536E-01-1.25587E-02-7.66572E-01 8.09179E-04-1.06861E-03
 -1       116-1.15351E+00 6.05788E-01-1.84490E-03-3.06964E-02 7.14171E-03-1.01179E-02
 -1       117-4.98637E-01 1.65738E+00-4.08531E-03 8.21912E-01 1.58807E-02 1.54404E-02
 -1       118 6.08352E-02 7.83232E-01 8.45595E-04 8.57826E-01 7.16725E-03 5.79852E-03
 -1       119-1.51547E-01 4.22799E-01 2.77762E-04 1.01665E-01-2.24623E-03-2.25583E-03
 -1       120-1.35439E-01 5.92479E-01 3.97221E-03-2.20221E-01 3.65681E-04-1.70353E-03
 -1       121 1.38445E-01 3.90617E-01 4.13503E-03-4.19622E-01-4.76328E-03-5.12169E-04
 -1       122-7.45666E-02 3.32131E-01 3.15854E-04-1.02853E-01-5.56594E-04 1.27373E-03
 -1       123-1.90776E+00 4.93106E-01 1.44457E-02-3.89452E-01 4.10934E-03-1.00162E-02
 -1       124 1.38925E-02 1.34872E-01-7.53544E-04 8.48425E-02-9.47035E-04 8.50173E-04
 -1       125-9.00697E-02 5.68649E-01 1.50881E-03-2.48252E-01 9.69052E-04 1.09713E-03
 -1       126-1.21907E-02 5.59421E-03 4.76911E-04-6.99461E-01-1.20853E-04-9.38112E-04
 -1       127-2.88217E-01 8.57141E-01 1.27435E-03-1.05800E-01-1.49869E-03-7.84196E-04
 -1       128-3.25595E-01 6.70123E-01-1.08010E-03 7.60516E-02 1.41022E-03 1.51073E-03
 -1       129-8.12483E-01 1.09211E+00 2.27836E-03 4.27923E-01-7.90972E-04-5.63863E-04
 -1       130-4.51935E-01 8.23700E-01 3.39601E-03 4.08207E-01 2.39814E-03-7.10776E-03
 -1       131-1.39178E+00 1.00668E+00 2.22173E-03-1.02282E-03 2.91805E-03-5.09821E-03
 -1       132-4.11738E-01 2.10423E-01 5.09398E-04-5.38379E-01-1.33285E-03-2.80669E-03
 -1       133-4.04271E-01 7.47208E-01-4.58552E-03-1.05350E-01 4.07777E-03 2.44722E-03
 -1       134-7.72449E-01 4.63351E-01-2.15672E-04-4.25968E-01 4.54862E-04-1.38776E-03
 -1       135-7.50056E-01 7.99601E-01-3.01796E-03-5.68134E-02-4.98570E-04-1.12552E-03
 -1       136-3.53306E-01 6.14658E-01-1.85066E-03-2.12804E-01-2.44954E-03 7.33573E-04
 -1       137 2.19955E-01 7.18634E-01-5.50864E-04-5.00645E-01-2.47345E-03-4.50905E-03
 -1       138 5.10677E-02 3.71790E-01-5.81608E-03-3.92490E-01-1.38315E-03-1.80601E-03
 -1       139-1.71030E-02 6.95729E-02-4.32817E-04-6.67945E-01-4.51069E-03-2.41219E-03
 -1       140 6.09418E-02-2.61150E-02 2.94710E-03-7.61167E-01-6.89833E-05-1.06786E-03
 -1       141 1.73554E-01-7.09019E-02 2.56027E-03-5.94883E-01 9.88128E-03-1.89781E-03
 -1       142 8.06301E-02-1.13259E-01 2.15025E-03-3.41517E-01-1.69281E-03-1.42847E-04
 -1       143-5.69112E-02-6.78121E-01-1.57335E-03-3.70850E-01-4.18854E-03-5.40407E-04
 -1       144-1.90146E-01-1.15018E+00 9.76492E-04-6.10806E-01-9.62212E-03-6.80833E-03
 -1       145-7.11444E-01-1.48661E+00-1.63803E-02-1.12745E+00-8.50162E-03-2.16300E-03
 -1       146-1.76724E+00-4.49005E-01 3.75042E-01-1.37177E+00 1.03536E-01 8.43554E-02
 -1       147-2.21229E+00-4.85345E-01 2.42788E-01-2.43106E-01 7.20057E-03 1.42964E-01
 -1       148-6.86623E-01-3.18652E-01 4.98733E-02-3.09189E-02-2.97321E-02 2.72934E-02
 -1       149 7.13657E-02 2.77825E-01-9.10512E-03-1.28350E-02-1.34460E-02 2.67678E-02
 -1       150 9.38109E-02 1.42878E+00-1.98711E-01 1.22456E-02-9.39192E-02 1.91034E-02
 -1       151-2.63546E-01 2.33962E+00-3.14570E-01 1.42640E+00-1.46067E-01-6.08523E-02
 -1       152 9.19824E-01 6.06797E-01 4.23940E-02 1.12173E+00 1.21533E-02 1.76172E-02
 -1       153 3.16032E-01 1.06655E-01 5.15646E-03 3.14343E-01 3.75017E-03 4.13569E-03
 -1       154 9.79659E-02 4.30996E-02 4.75817E-04 9.22276E-02 1.73783E-03-1.21285E-04
 -1       155 2.81307E-02 2.17700E-02 1.34794E-03 1.23519E-02-7.78131E-04-4.19679E-04
 -1       156 8.05569E-03 1.05124E-02-9.55344E-04-1.00365E-02-7.83319E-04-1.92728E-04
 -1       157-4.24154E-02 1.93171E-01-6.85241E-05-1.06599E-02-7.70650E-04-8.99794E-05
 -1       158 9.17131E-03 1.57906E-01-3.28400E-04-8.79427E-02 7.56585E-04-1.63309E-03
 -1       159 1.28823E-01 1.18796E-01 7.12653E-03-1.47160E-01-2.74832E-03 6.50863E-04
 -1       160 4.21959E-01 8.13461E-01-2.96833E-02-2.87545E-01 6.84413E-03 2.25155E-02
 -1       161 1.45705E-01 7.95391E-01-1.53636E-02-4.51898E-01-1.33519E-02-3.16170E-03
 -1       162-1.45697E-01-1.63142E-01 2.78918E-02-2.23565E-02-2.30677E-02-3.08130E-04
 -1       163-2.52567E-02 4.18201E-01 8.32630E-03-2.50726E-01-3.68887E-03 7.01005E-03
 -1       164 1.22500E-02 1.18647E-01-3.04891E-04 6.09365E-02 3.60263E-04 4.17727E-04
 -1       165 9.56585E-03 9.82701E-01-6.49493E-03-1.60508E-01 4.08122E-03 6.71889E-03
 -1       166 1.87344E-01 2.22732E-01-1.49285E-04-6.40226E-01-4.01847E-04-3.40536E-04
 -1       167-5.68082E-02-1.73232E-01-1.16366E-03-7.11462E-01 1.83398E-03-2.05164E-03
 -1       168-7.12122E-01-1.86949E-01-1.31103E-03-7.73685E-01 5.86205E-04 3.97166E-03
 -1       169-1.21862E+00 1.40059E-01 3.13349E-04-7.34140E-01 8.36929E-05 5.94237E-04
 -1       170-1.64474E+00 6.29314E-01 1.15289E-03-4.26748E-01 4.34056E-03 3.00011E-03
 -1       171-1.22272E+00 1.03682E+00-2.62028E-03 8.85200E-02-7.24210E-03-1.81524E-03
 -1       172-8.09006E-01 1.56913E+00-1.34845E-02 4.36319E-01-1.58888E-02 4.37932E-03
 -1       173-3.50103E-01 1.31996E+00-3.33517E-03 9.07913E-01-1.35318E-02-1.43473E-02
 -1       174 7.42608E-02 4.58730E-01 2.28210E-04 5.79287E-01 3.93935E-03 2.76326E-03
 -1       175 5.19315E-02 2.21291E-01-1.28083E-03 2.37142E-01-1.92716E-05 1.58812E-03
 -1       176 2.45313E-01 4.48671E-01-7.27984E-05-4.39014E-01-2.04492E-03 2.01069E-03
 -1       177-2.37381E-01 8.05482E-01-5.17111E-04-1.75985E-01 1.14630E-04-1.19183E-03
 -1       178-2.51590E-01-2.19752E-01-8.39683E-04-7.13555E-01 4.91113E-04 2.70691E-04
 -1       179 2.56301E-02 6.28026E-01 8.42254E-04-2.37058E-01 1.09372E-03-1.15845E-03
 -1       180-2.12876E-01 5.45792E-01-9.89971E-04-3.15017E-02 1.36616E-03-3.86584E-04
 -1       181-1.53036E-01 4.58674E-01-2.47020E-03 2.02868E-01-1.80904E-03-1.09698E-03
 -1       182-7.29769E-01 6.02119E-01 1.15030E-03-2.64937E-01-1.87578E-03-6.17999E-04
 -1       183-3.78657E-01 8.02275E-01-6.07132E-05-7.29573E-02 1.80446E-03-2.95204E-03
 -1       184-9.68470E-01 9.09612E-01 2.29174E-03-6.60244E-03 3.40789E-04-9.61372E-04
 -1       185-6.84219E-01 9.55266E-01 7.65072E-04 3.39052E-01 5.64538E-03 2.72558E-03
 -1       186-3.67515E-01 7.18926E-01 1.67821E-03 1.01761E-01 1.45295E-03-1.63213E-03
 -1       187-1.16239E+00 1.24200E+00-7.35617E-03 2.74757E-01-7.82525E-03 2.24215E-03
 -1       188-1.43029E-01 2.43273E-01-5.84942E-04-5.01470E-01-1.06025E-03 7.92359E-04
 -1       189-5.32316E-02-1.75732E-02-1.08720E-02 2.37634E-02 3.80035E-04-1.40592E-04
 -1       190 4.47461E-03-5.11430E-02-5.29418E-04-9.24076E-03-1.72796E-04-7.66413E-05
 -1       191 2.21260E+00-3.68914E-01-2.77527E-01 7.87157E-02 2.48319E-02 2.60258E-02
 -1       192-3.46475E-02-3.98405E-03 9.46796E-05-6.82459E-03 1.67272E-04-5.27672E-04
 -1       193 1.98822E-01 3.93902E-01 1.08448E-01 2.56137E-01-1.84292E-02 1.57725E-02
 -1       194-7.98395E-01-4.61190E-01-1.89871E-01-4.95057E-01 1.12692E-02 3.72517E-02
 -1       195-8.83041E-02-7.15732E-01-4.85293E-02 6.92613E-02 1.47426E-03-1.04112E-02
 -1       196-6.21352E-01-1.05785E-01-3.18820E-02-5.97535E-01 1.58164E-03-6.56229E-04
 -1       197 8.44010E-02 7.59860E-01 2.15571E-02 3.79407E-02-2.35678E-03 1.07065E-02
 -1       198-2.95440E-02 1.15516E+00-3.27558E-02 3.94433E-03-1.39502E-03-1.77194E-03
 -1       199 1.06910E-01 3.74179E-01 5.23849E-03-3.16033E-01-2.40649E-03 8.88656E-03
 -1       200 2.18879E-01 1.00792E+00 1.02582E-03-4.38993E-01 1.44885E-05-3.68647E-06
 -1       201 2.58538E-01 4.69218E-01-1.47036E-03-5.17179E-01 4.40730E-03 2.48848E-04
 -1       202 3.40769E-01 8.51651E-01-8.62788E-04-4.74194E-01-2.82738E-03 1.01340E-03
 -1       203 1.26871E-01 6.11363E-01-6.68147E-04-4.13577E-01 1.91924E-03 8.20693E-04
 -1       204 5.51522E-02 8.76642E-01-2.49361E-03-3.15809E-01 1.44930E-03 3.94283E-04
 -1       205 2.42003E-01 6.06167E-01-1.75192E-03-3.76058E-01-1.34376E-03-2.24117E-03
 -1       206 1.41118E-02 3.83763E-01-3.43897E-03-4.18664E-01-3.58809E-04-3.03755E-03
 -1       207 2.05587E-01 8.48491E-01-4.53988E-03-1.91827E-01-4.83229E-04 1.43596E-03
 -1       208-1.75356E-01 7.42772E-01 1.01547E-03-1.52588E-01 2.55431E-03 3.93936E-04
 -1       209 1.21005E-01 6.35777E-02 5.17808E-03-1.02725E-01 4.72609E-03-4.26385E-03
 -1       210 6.95512E-03 2.55462E-01 1.05104E-03-1.50474E-01-6.10721E-04 5.08956E-04
 -1       211-1.64119E-01 6.14289E-01-2.95620E-03-1.73537E-01 8.67403E-04-3.58377E-04
 -1       212 1.63575E-01 1.42098E-01 1.16862E-03-2.11085E-01-4.30788E-03-5.78808E-03
 -1       213 2.95889E-02 2.22944E-02 1.79051E-03-1.66170E-02 2.99509E-05 4.00401E-04
 -1       214 1.92231E-01 3.36443E-01 6.35167E-05 4.87178E-01-4.04700E-03 3.61452E-03
 -1       215-1.49246E-05 2.44211E-01 1.46481E-03 1.91278E-01 5.54362E-05 2.00897E-03
 -1       216-1.48386E-01 5.95247E-01-7.60732E-03 4.84459E-01-2.14140E-03-5.62096E-03
 -1       217-6.26499E-03 3.70300E-01 2.51239E-03 3.43941E-01-1.35694E-03-2.27340E-03
 -1       218-1.27594E-01 4.61133E-01 2.97300E-03 2.76568E-01-1.07663E-03 4.78739E-04
 -1       219 3.75954E-02 3.58267E-01-8.01091E-04 3.75645E-01-1.28293E-03 3.91742E-03
 -1       220-8.32188E-02 4.57447E-01-7.57935E-03 3.54788E-01-2.49369E-03-7.68174E-03
 -1       221 1.24493E-01 1.80843E-01 5.23940E-03 2.59735E-01 8.22205E-05 4.10430E-03
 -1       222 1.92456E-02 1.24451E+00-6.46796E-03-7.41374E-02 1.59612E-02-3.14335E-03
 -1       223-5.67721E-02 6.14725E-01 1.37173E-02-2.38283E-02-2.29401E-03-6.48562E-03
 -1       224-5.21403E-01 1.14171E-02-2.43476E-02-3.76105E-01-6.29493E-03-2.30262E-02
 -1       225-5.86924E-01-1.24521E-02-1.42001E-02-5.13151E-01 8.81017E-04 1.64798E-02
 -1       226-1.54903E-01-2.65906E-03-2.33328E-03-5.25472E-01-3.70197E-03 1.47372E-02
 -1       227 3.75776E-01 1.46528E-02 1.06400E-02-5.39444E-01-6.47161E-03 1.19733E-02
 -1       228 7.23906E-01 2.15588E-02 1.61160E-02-5.30956E-01 2.47860E-04-1.21348E-02
 -1       229 5.25019E-01 4.83063E-02 5.09078E-02-4.52918E-01 1.81060E-03 1.58362E-03
 -1       230-3.27430E-02-5.39176E-01-3.30984E-02-1.38582E-02 7.42414E-03-2.01793E-02
 -1       231-1.66617E-02-8.02026E-01 4.08544E-03 4.67890E-02 1.75449E-02 3.19950E-03
 -1       232 1.00362E-03-9.87488E-01 5.08079E-03 1.26619E-02 8.78469E-03 2.13761E-03
 -1       233 1.69759E-02-1.41435E+00 1.16408E-02 2.52217E-02 1.41049E-02 1.99016E-03
 -1       234 2.81515E-02-2.36418E+00 9.88821E-02-4.46692E-03-4.46661E-02 2.27763E-02
 -1       235-9.11881E-01-8.42664E+00-1.07927E+00-2.39407E+00 3.37286E-01 8.90182E-02
 -1       236-3.88088E+00-1.09460E+00-1.09461E+00-1.61322E+00 1.78529E-07 6.89625E-01
 -1       237-1.04127E+00-2.93691E-01-2.93694E-01-5.74530E-01-9.33511E-08 2.49958E-01
 -1       238-1.59954E-01-4.51138E-02-4.51151E-02-1.63564E-01-8.49104E-08 4.41750E-02
 -1       239-4.02091E-02-1.42557E-01-4.02088E-02 5.59740E-02 2.08146E-02 4.59439E-08
 -1       240 1.33026E-01 4.71643E-01 1.33028E-01 4.46694E-01-1.48738E-01 7.81564E-08
 -1       241 9.54363E-01 3.38366E+00 9.54369E-01 1.22887E+00-7.35858E-01 6.40124E-09
 -1       242 5.52618E+00 6.72275E-01 4.20778E-01 1.47451E+00-6.15368E-02-2.99512E-01
 -1       243 1.03283E+00-3.79360E-02 1.94128E-03 7.20037E-02 6.27128E-04-2.12726E-03
 -1       244 2.64494E-01-2.45348E-02-1.86463E-02 1.02486E-02-8.88576E-03-2.64582E-03
 -1       245-3.31662E-02-1.32052E-02-9.60155E-03-2.00868E-02-1.25158E-04-9.60975E-04
 -1       246-5.09623E-02-8.71209E-03-3.01627E-03-1.18045E-02-9.23860E-04-2.62153E-03
 -1       247-2.11829E-02 8.58581E-04 5.05164E-04-4.70862E-03 3.16682E-04-1.54401E-03
 -1       248 4.54813E-03 1.47993E-03 1.01538E-03-1.38050E-02 4.26898E-04 1.03788E-03
 -1       249-1.40117E-03-1.16442E-02-9.08109E-04-1.38777E-02 1.79203E-03 4.19319E-04
 -1       250 2.45666E-03 6.12900E-03 1.66654E-03-1.20487E-02 4.84522E-04-7.42611E-04
 -1       251 7.00926E-03-5.66966E-03 1.88452E-03-1.39199E-02 2.30688E-03-9.82003E-04
 -1       252 8.68953E-04-4.57324E-02-1.31155E-03-5.41751E-03 7.72433E-04-1.17739E-03
 -1       253 4.09423E-03-2.86402E-02-1.43080E-03-5.98537E-03-3.48147E-03 2.64535E-03
 -1       254-2.06378E-03 8.09472E-03 1.18491E-03 7.26168E-03 2.03714E-03-4.53250E-03
 -1       255-2.44871E-02-1.18213E-02-4.60759E-03 1.66028E-02 3.73112E-03-6.10298E-03
 -1       256 1.09868E-01 1.31881E-02-1.64321E-02-4.57247E-02 9.51212E-04 7.20394E-03
 -1       257 4.52884E-01 2.30227E+00 1.06779E-01-8.08716E-01 1.16767E-02-4.81931E-02
 -1       258 9.04151E-01 4.73502E-01 5.20394E-02-5.86431E-01-6.46830E-02 6.62584E-02
 -1       259 3.02807E-02 1.43098E+00-3.20468E-03-1.17125E-01-3.49894E-02-4.08908E-03
 -1       260 1.17433E-02 8.89916E-01-3.64571E-03 2.09813E-02 1.52383E-02-6.82004E-04
 -1       261 8.58121E-02 5.18728E-01 2.54884E-02-1.74357E-02-5.39681E-03-2.31507E-03
 -1       262-5.58314E-01-1.18476E-01-1.40409E-02-5.51145E-01-4.77312E-03 3.22541E-02
 -1       263-5.41910E-01-1.19257E-02-7.45762E-03-5.76558E-01-2.29022E-02-3.78309E-02
 -1       264-5.42965E-03 3.77402E-03-4.32894E-03-5.44379E-01-4.24339E-04-1.58009E-02
 -1       265 5.52624E-01 1.85930E-02 1.01249E-02-5.32414E-01 1.02228E-02-1.70925E-02
 -1       266 6.53202E-01 1.44206E-02 1.11293E-02-4.61754E-01-1.18526E-02 1.86923E-02
 -1       267 3.54448E-02-5.26194E-01-2.66989E-02-7.49711E-02 9.42938E-03 1.40466E-04
 -1       268-3.53621E-02-7.81229E-01 8.77823E-03 6.41507E-02-2.42270E-02 7.41955E-03
 -1       269 3.98494E-03-1.02178E+00 3.70274E-03 1.98434E-02-3.48603E-03 1.13790E-03
 -1       270 2.14055E-02-1.48492E+00 3.76774E-02 1.10647E-02-3.78116E-03-9.34137E-03
 -1       271 9.25194E-02-2.59964E+00 1.74877E-01-1.44340E-01 5.20122E-02-5.25641E-02
 -1       272-1.23647E+00-8.28757E+00-1.21491E+00-2.77318E+00-3.95771E-03 2.45981E-01
 -1       273-3.76626E+00-1.06228E+00-1.06228E+00-1.54957E+00-3.54337E-07-6.30071E-01
 -1       274-9.63221E-01-2.71676E-01-2.71678E-01-5.85603E-01 1.51256E-07-1.88597E-01
 -1       275-3.23212E-02-9.11527E-03-9.11602E-03-6.98036E-02 1.01812E-07-1.88431E-02
 -1       276-5.43515E-02-1.92701E-01-5.43516E-02-1.14977E-02-1.86734E-02 1.02738E-07
 -1       277 1.48922E-01 5.27999E-01 1.48923E-01 3.05915E-01 1.15235E-01-1.73559E-07
 -1       278 8.48396E-01 3.00795E+00 8.48400E-01 8.07827E-01 4.95130E-01-1.50636E-08
 -1       279 6.03146E+00 1.29187E+00 8.29804E-01 2.38235E+00 1.18062E-01 2.91830E-01
 -1       280 1.13145E+00-6.91690E-02-8.94648E-02 1.07859E-02 7.99693E-02-4.44294E-02
 -1       281 2.79099E-01-2.34825E-02-2.80418E-02 6.76069E-03 2.83963E-03 2.35593E-03
 -1       282-6.06208E-03-4.69534E-03-6.13694E-03 4.26293E-03 3.72775E-03 4.77895E-03
 -1       283-4.52145E-02-4.26471E-03-2.10985E-03-5.85905E-03 2.25986E-03 3.34666E-03
 -1       284-1.64624E-02-1.97709E-03-5.00693E-04-7.98462E-03 5.16261E-04 1.44614E-03
 -1       285-3.22362E-03-1.40008E-03-1.15672E-03-1.54775E-02-7.41343E-04-8.07563E-04
 -1       286-1.61163E-03-5.48443E-03-4.12512E-04-1.38484E-02-3.50462E-04 4.57290E-04
 -1       287 9.50031E-03 6.35390E-03 2.48509E-03-1.55412E-02-2.97285E-04 1.46483E-03
 -1       288 3.05406E-03-4.05355E-02-1.40999E-03-8.08069E-03-1.25926E-03 2.31932E-03
 -1       289 2.92339E-03-2.86997E-02-4.32588E-04 2.61633E-03 3.26623E-03-2.92247E-03
 -1       290-5.48438E-03 1.28431E-02-3.62516E-04 3.12063E-03-1.75584E-03 4.17108E-03
 -1       291 6.61020E-02-6.58361E-03-8.96309E-03-1.77245E-02 6.57689E-03-4.93937E-03
 -1       292 4.55687E-01 2.26798E+00 1.13501E-01-8.20039E-01-1.85971E-03 5.26569E-02
 -1       293 8.83124E-01 4.76018E-01 5.54726E-02-5.93021E-01 7.21156E-02-5.71960E-02
 -1       294 2.04280E-01 1.99865E+00 4.51986E-02-3.79558E-01-4.98127E-02 2.22913E-02
 -1       295 1.76551E-01 2.10605E+00 5.51144E-02-3.78004E-01 6.09572E-02-3.03639E-02
 -1       296 3.44249E-01-7.43262E-02-6.11043E-02-1.06068E-01-8.13329E-03-1.28194E-02
 -1       297 3.52744E-01-5.71116E-02-5.70669E-02-1.09321E-01 1.76083E-02 2.14715E-02
 -1       298-6.37848E-03-1.13755E-02 4.42029E-03 3.68989E-03 4.39408E-04 1.34765E-03
 -1       299-3.52946E-05-1.01780E-02 4.81393E-03-1.70524E-03-1.09427E-03 7.51240E-05
 -1       300-4.81500E-03 9.39113E-04 2.32064E-03-7.05338E-03-3.34124E-04 1.59291E-03
 -1       301-4.64812E-03 4.06852E-03 2.71924E-03-5.73475E-03-5.31853E-04-2.19125E-03
 -1       302 4.86515E+00 5.61544E+00 2.30574E+00 2.87439E+00 5.21164E-01 3.25937E-01
 -1       303 5.23626E+00 5.30602E+00 2.31931E+00 3.15824E+00-6.07414E-01-1.00180E-01
 -1       304 4.72565E-07 1.10036E-06 3.46044E-07 4.43279E-07 1.01812E-07 1.02738E-07
 -1       305-2.78829E-02-9.68534E-02-2.74422E-02-2.78841E-02 6.28339E-03 4.99824E-03
 -1       306-6.01959E+00-6.28934E+00-2.70797E+00-3.88319E+00-3.27552E-01-4.74335E-01
 -1       307-6.16514E+00-7.00335E+00-2.89708E+00-3.89271E+00 4.33131E-01 5.89205E-01
 -1       308 2.43895E-01-1.43756E-01 8.69798E-03-2.83437E-01 3.41358E-02 2.52776E-02
 -1       309 2.60923E-01-2.19086E-01 1.48849E-02-2.44588E-01-1.35130E-02 1.86544E-02
 -1       310-3.07220E-01 2.06182E-01-3.41324E-03-2.70113E-01-3.28408E-02 3.55249E-02
 -1       311-2.02217E-01 1.97135E-01 5.76704E-03-1.56045E-01 5.04666E-02-9.26250E-03
 -1       312 4.61573E-02 7.64379E-01-3.01721E-03-2.19023E-01 1.97585E-03-4.19313E-03
 -1       313 9.94941E-02 1.18718E+00-1.81288E-03-3.52010E-01 5.49527E-03 5.47325E-03
 -1       314-4.75129E-02 2.00881E-01 8.13443E-03-2.76799E-01 5.27178E-03-9.23721E-03
 -1       315 3.97407E-02 5.55980E-01-7.06891E-03-1.66638E-01 7.11751E-03 1.59929E-02
 -1       316 7.07666E-02 4.66306E-01-1.97977E-03-4.32383E-01 6.14517E-03 3.29371E-04
 -1       317-3.34098E-01 7.70337E-02 4.56282E-03-5.09507E-01-8.76770E-03-7.41733E-03
 -1       318-1.52391E-01 1.34606E-02 9.81402E-03-6.39205E-01-1.32108E-03 8.23504E-04
 -1       319-2.43756E-01 2.77026E-02 5.30905E-03-6.09053E-01 4.58851E-03 4.32488E-03
 -1       320-3.01043E-02 1.28065E-01-8.74895E-03-5.71638E-01 1.04175E-02 8.33134E-03
 -1       321 1.20411E-01-1.07412E-02 4.39997E-03-6.51036E-01-6.68227E-04 3.85872E-03
 -1       322-9.44853E-02 1.03526E-03-3.07055E-03-6.50140E-01 2.16058E-03 8.90117E-03
 -1       323 2.29736E-02 1.22976E-02-6.29145E-03-7.38922E-01 9.23880E-03 5.18423E-03
 -1       324 4.24085E-01-5.69664E-03-1.97587E-03-5.99632E-01-3.52154E-03 7.97464E-03
 -1       325 1.92822E-01-8.13220E-04-3.49473E-03-5.99612E-01-4.86776E-03 4.17801E-03
 -1       326 1.44211E-01-2.17835E-02-2.70058E-03-7.09245E-01-8.89101E-03 2.91902E-03
 -1       327 3.88008E-01 1.52104E-02-3.49383E-04-5.69926E-01-5.74048E-03 8.05434E-03
 -1       328 2.29102E-01-1.83329E-01 1.65794E-02-2.59499E-01-1.47060E-02-1.06511E-03
 -1       329-9.36448E-03-5.81463E-01 9.01328E-03-1.08626E-01 3.61390E-03-3.41808E-04
 -1       330-1.48024E-02-4.45828E-01 4.98908E-03-1.13287E-01 1.23715E-02-6.18305E-03
 -1       331-1.16986E-02-9.62519E-01-2.66205E-03-1.29667E-01 3.58261E-03 1.68206E-03
 -1       332-7.54907E-03-8.08208E-01-1.13384E-03-1.20211E-01 3.39971E-03 1.29340E-03
 -1       333-1.11534E-02-5.58108E-01-2.31493E-04-2.50849E-01-9.10848E-04-3.30806E-03
 -1       334-3.73956E-02-1.58581E+00-1.79397E-02-2.29496E-01 1.86074E-02 9.27422E-03
 -1       335-1.94806E-02-1.24971E+00-4.66328E-03-2.00177E-01 1.85793E-03 6.43715E-03
 -1       336-5.40336E-02-1.00551E+00 2.97260E-03-3.39858E-01-3.08308E-03 7.46089E-03
 -1       337-3.51677E-01-3.07321E+00-4.70315E-02-7.81011E-01-4.64487E-02 5.25610E-02
 -1       338-1.39366E-01-2.12541E+00-6.15828E-03-5.40089E-01-1.02330E-03 1.89736E-02
 -1       339-2.43012E-01-1.64440E+00 1.56920E-02-7.62350E-01-1.92433E-03 2.26933E-02
 -1       340-4.10075E+00-4.46125E+00-9.42518E-01-3.43567E+00-1.32350E-01 1.02328E-01
 -1       341-1.63680E-01-1.21661E+00 1.03088E+00-7.44463E-01-3.19180E-01-1.47201E-01
 -1       342-1.43548E+00-1.81544E+00 7.47048E-02-1.74053E+00-2.86658E-02-3.13931E-02
 -1       343-2.12618E+00-1.21045E+00-1.90169E-01-6.80516E-01 1.79408E-02 1.86088E-01
 -1       344-4.26282E+00-2.20566E+00-5.11807E-01-1.52267E+00-2.00446E-02 2.68200E-01
 -1       345-2.16121E+00-8.45482E-01 5.45594E-01-7.73533E-01-1.74897E-01-2.28063E-01
 -1       346-3.32597E-01-3.90731E-01 3.36018E-02-2.59551E-01 1.88356E-02-2.00337E-02
 -1       347-1.03864E+00-6.27344E-01-1.28837E-01-4.75542E-01 1.62870E-02 8.87691E-02
 -1       348-1.28008E+00-5.50535E-01 1.11762E-01-2.03000E-01-3.02475E-02-4.34849E-02
 -1       349 4.61753E-02-2.19775E-01-6.98800E-04-3.81301E-02 2.08932E-02-4.19493E-03
 -1       350-1.24915E-01-2.60695E-01-1.94637E-02-1.48364E-01 1.19741E-02 3.33558E-02
 -1       351-1.95499E-01-3.07877E-01 5.30515E-03-6.55709E-02 2.78559E-02-1.14781E-02
 -1       352 7.68385E-02-1.46281E-01-2.02059E-03 2.51701E-02-1.38647E-03-5.69631E-03
 -1       353 5.59253E-01 1.12067E+00 8.24660E-02 2.62802E-01-1.96377E-01-9.71698E-03
 -1       354 2.48969E-01 2.48708E-01-4.14814E-02 9.72812E-02 2.09180E-02-2.85744E-02
 -1       355 1.23388E-01 2.23204E-01-3.51065E-02 2.79301E-02-6.01462E-03-6.35694E-02
 -1       356 1.62155E+00 4.62358E+00 6.16783E-01 1.64821E+00-1.85786E-01 4.65727E-02
 -1       357 7.46011E-01 1.87989E+00-1.41616E-01 5.69041E-01-1.25438E-01-4.04259E-02
 -1       358 3.16255E-01 1.77090E+00-8.30175E-02 2.05551E-01-5.17873E-02-1.23495E-01
 -1       359 9.65612E-01 2.14618E-01-1.59215E-01 6.20490E-01 4.32482E-02 2.43445E-01
 -1       360 3.99290E+00 1.83225E+00 5.05450E-01 2.50504E+00-1.43077E-01-1.57839E-01
 -1       361 5.28760E-01 1.31600E+00-5.04570E-01 1.03765E+00 1.45412E-01 6.18793E-02
 -1       362 6.14770E-01 3.22572E-02 2.40336E-02 2.26791E-01-5.48296E-03 4.64832E-03
 -1       363 1.35307E+00 2.35157E-02 2.33308E-02 3.33673E-01-1.61809E-02-4.38028E-02
 -1       364 1.02015E+00 4.97963E-01 2.26281E-02 9.78611E-01 3.31435E-02 3.16518E-02
 -1       365 4.29778E-02 1.79302E-02 6.24450E-03 3.92455E-02-8.55739E-04-6.14263E-03
 -1       366 1.14009E-01 2.00846E-02 5.84243E-03 4.22673E-02-3.23956E-03-9.93344E-03
 -1       367 2.52763E-03 6.15530E-03 1.11491E-03-3.21808E-04-8.65784E-04 4.82799E-04
 -1       368 1.97413E-03 1.10534E-02 4.31949E-03 4.43228E-03-3.10307E-04-2.17866E-03
 -1       369 6.25472E-02 3.70472E-02 3.70206E-04 6.07110E-02-1.14339E-03-2.60124E-03
 -1       370-7.54882E-03 1.32789E-03 5.11751E-04-1.39201E-02 6.03094E-04-4.25844E-04
 -1       371-7.95352E-03 6.21843E-02-1.17925E-03 1.50378E-03 1.11548E-03-4.10703E-04
 -1       372-3.05504E-03 5.53114E-02-6.67977E-04 4.76428E-03 6.61342E-04 1.80420E-04
 -1       373-8.12085E-03 6.42378E-02-1.24975E-03-2.91326E-02 1.27304E-04 1.36314E-03
 -1       374-1.13615E-02 7.74288E-02-8.94585E-04-2.18122E-02 3.32698E-04-6.34923E-04
 -1       375-1.51738E-02 1.54605E-01 2.72750E-03-6.82346E-03 9.39861E-04-8.72495E-04
 -1       376 1.04393E-02 2.80458E-02-5.66972E-04-2.80756E-02-1.23955E-03 2.19833E-03
 -1       377 4.28096E-03 3.85904E-02 2.84051E-04-3.75452E-02-6.79619E-04 2.78559E-04
 -1       378-7.88781E-03 1.49997E-01 1.04837E-03-5.62155E-02 2.33120E-03-1.13828E-03
 -1       379-5.36104E-04-1.20736E-02 2.10977E-03 5.01690E-03-5.85591E-04-1.11413E-03
 -1       380 6.70370E-02 2.29636E-02 5.74316E-03-2.66698E-02 5.11295E-03-6.73383E-03
 -1       381 3.46076E-02 1.57338E-02 7.33795E-04-9.09461E-03 9.05402E-04-4.39651E-03
 -1       382 2.60526E-01 1.14623E-01-1.04722E-03-1.97245E-01 4.89396E-03 1.57209E-02
 -1       383 9.81289E-02 5.41189E-02 1.47722E-03-8.53905E-02 5.67414E-03-7.34520E-03
 -1       384 7.95397E-02 1.03771E-01-4.75389E-03-1.13522E-01 3.05157E-04 6.64521E-04
 -1       385 3.58488E-01 1.32417E+00-2.20143E-02-3.66122E-01-2.04153E-02-1.80571E-02
 -1       386 5.53826E-01 1.21049E+00-1.00346E-02-5.56068E-01-2.42317E-02 4.44430E-04
 -1       387 5.86150E-01 1.00558E+00 4.80813E-02-6.64202E-01-2.28136E-02 1.98513E-03
 -1       388 3.14449E-01 3.60202E-01-2.20120E-02-3.38108E-01-5.18030E-03 2.03123E-02
 -1       389 2.14375E-01-1.25822E-01-1.31288E-02-3.73161E-01-1.79142E-02-5.97741E-04
 -1       390 7.66438E-03 8.56085E-03-1.04510E-03-8.06961E-03 1.82451E-04-4.06301E-04
 -1       391 8.48858E-02-1.80802E-01-5.08232E-03-4.53555E-01 3.32624E-03 3.14399E-03
 -1       392 3.07377E-01 1.12295E+00-5.29942E-03-4.11435E-01-1.80521E-02-2.05972E-02
 -1       393 5.07304E-02 9.44972E-01-7.97695E-03-2.90618E-01 4.08739E-03-8.10188E-03
 -1       394 1.98924E-01 9.57921E-01-5.72221E-04-1.79859E-01-1.04913E-02-6.55072E-03
 -1       395 2.14615E-01 6.62387E-02-2.91870E-03 1.79715E-01-4.48018E-03-1.07591E-02
 -1       396 4.82981E-01 1.13050E-01 1.20027E-02 2.54862E-01-5.83937E-03 1.53899E-03
 -1       397 1.76732E-02-3.00948E-03-1.55596E-03-9.66281E-03 4.83002E-04-1.41178E-04
 -1       398 1.16759E-01 4.36210E-01 4.12754E-03-3.51355E-01-2.66646E-03-2.18454E-03
 -1       399 3.85368E-01 8.03310E-01 1.28880E-02-4.77699E-01 3.83134E-03-1.00248E-02
 -1       400 1.87185E-01 1.33315E-01 1.60412E-03 2.51502E-01 2.21755E-03-1.63239E-04
 -1       401 8.44406E-02 2.02141E-01 1.41804E-03-5.63018E-01 5.71027E-03-6.62573E-03
 -1       402 1.80037E-01 3.86239E-01-8.38291E-04-5.87000E-01 3.91238E-03 2.84682E-03
 -1       403 5.54447E-02 1.04998E-01 4.40167E-03-7.01143E-01 3.55279E-03-5.50218E-04
 -1       404-7.32737E-01-9.68032E-01 1.66503E-03-1.03484E+00 3.64338E-03 9.82190E-03
 -1       405-3.64421E-01-7.15622E-01 1.70647E-02-6.74987E-01 9.41715E-03 6.16766E-03
 -1       406-1.81062E-01-7.97509E-01-9.07283E-03-6.05362E-01 8.05819E-03 5.75310E-03
 -1       407-9.93930E-02-5.53511E-01 3.41751E-03-5.03346E-01 4.50404E-03-4.11008E-03
 -1       408-4.73228E-01-3.30656E-01-7.08654E-03-7.53780E-01 8.19456E-03 6.56009E-04
 -1       409 1.98383E-03 7.37572E-03-8.47331E-04-8.88025E-03 1.24525E-03 5.94280E-04
 -1       410 1.66962E-02 3.40158E-02 1.80780E-03 1.17420E-02-1.40424E-04 2.49481E-04
 -1       411-4.08179E-02-4.76378E-01-2.36196E-03-4.71825E-01 9.73434E-04 3.84201E-03
 -1       412 2.40905E-04-2.79007E-01 6.08909E-03-4.75067E-01 2.87941E-03-2.69343E-03
 -1       413 8.39681E-02-1.54384E-01-8.22625E-04-6.51057E-01-2.32586E-04 1.59713E-03
 -1       414-1.13899E-01-3.01702E-01-6.19765E-03-6.75003E-01 7.05745E-04-1.74166E-03
 -1       415-1.60732E+00-5.08430E-01 8.60878E-02-1.15450E+00-2.50610E-04-3.29325E-02
 -1       416-1.07559E+00-7.41491E-01-1.33995E-02-1.03263E+00-3.86545E-03 1.20888E-02
 -1       417-1.06503E+00-1.06295E-01-2.46739E-02-8.20627E-01 3.65576E-03 1.48043E-03
 -1       418-7.91028E-01 5.06749E-02-1.09879E-02-7.22353E-02 2.17539E-02-9.28223E-04
 -1       419-1.67603E+00-7.13354E-02-4.08588E-03-1.48422E-01 2.98700E-02-4.61182E-02
 -1       420 3.62771E-01 1.53069E+00 3.56841E-02 1.28429E+00 1.12303E-02 4.99946E-02
 -1       421-2.13256E-01 2.14501E+00-2.09118E-03 7.83193E-01 7.44839E-02-5.74323E-03
 -1       422 3.52638E-01 4.29444E-01-5.88300E-03 7.00838E-01-3.49933E-03-2.45734E-03
 -1       423 5.42832E-01 8.15385E-01-5.07535E-02 1.09336E+00 1.41769E-02 2.73121E-02
 -1       424-1.42836E-01 1.26974E+00 7.35242E-03 9.56144E-01 5.73994E-05 7.03300E-03
 -1       425 3.76575E-02 8.52967E-02 2.06590E-03-5.96322E-02-9.79498E-04 1.76291E-03
 -1       426-5.49685E-03 7.54465E-02-2.07757E-03 1.28071E-02 7.76027E-04 5.57652E-04
 -1       427 1.78120E-03 1.08143E-02-1.07427E-03-2.35867E-03 7.98689E-04 5.18845E-04
 -1       428-9.17122E-02 2.85195E-01-2.89769E-03 1.42482E-02-1.44064E-03 2.76315E-04
 -1       429-6.74446E-02 2.66151E-01 2.23086E-03 5.75209E-02 5.92417E-04-3.01383E-03
 -1       430-1.28332E-02 6.84526E-01 5.98805E-04-3.29561E-01 7.78021E-03 5.18102E-04
 -1       431-7.02804E-03 3.75544E-01-7.15119E-04-2.20137E-01-2.01349E-03-6.47545E-04
 -1       432 4.63483E-02 1.44510E-01-4.03300E-03-1.21767E-01 3.27942E-03-1.14700E-03
 -1       433 2.32233E-01 4.89015E-01-9.19315E-04-4.76591E-01 2.04304E-04 2.97793E-03
 -1       434 2.36368E-01 6.09850E-01-1.43081E-02-3.51259E-01-8.57339E-03-3.16919E-03
 -1       435 1.83673E-01 2.86896E-01 6.12728E-03-5.76037E-01-3.54255E-03 7.57544E-03
 -1       436-3.52399E-02 2.28332E-01-1.52349E-03 1.42237E-01-7.92779E-03-5.25743E-04
 -1       437-3.47151E-03 3.40122E-01-2.31080E-03 2.86338E-01-3.43985E-04-2.67151E-03
 -1       438 4.85678E-02-9.76902E-02-3.72497E-03-7.12921E-01-2.76580E-03 1.81975E-03
 -1       439 8.80425E-02 5.00348E-02-2.35096E-03-7.29445E-01 2.65242E-03-2.57711E-04
 -1       440 1.15776E-02 2.77182E-01 2.75893E-04-1.57970E-01 2.21813E-03-6.37312E-04
 -1       441-2.08209E-02 2.18404E-01 1.86962E-03-9.28635E-02 2.51134E-03-3.39332E-03
 -1       442-5.83547E-02 2.38794E-01-1.26895E-03-6.35161E-02-4.32004E-04 5.77273E-04
 -1       443-1.04343E-01 4.55749E-01-1.94251E-03-1.61424E-01 1.92084E-03-1.85838E-03
 -1       444-1.50052E+00 5.13501E-01-7.27878E-03-1.48837E-01 4.67310E-03-9.78004E-03
 -1       445-2.23688E+00 1.23857E-02-9.98129E-03-2.94810E-01 2.78555E-02-3.04529E-02
 -1       446-2.28557E+00-3.69455E-01 1.05232E-01-1.09129E+00 3.54143E-02-5.57118E-02
 -1       447 8.82738E-03 8.67837E-02-3.72478E-04 3.89584E-02 1.11837E-03 9.85772E-04
 -1       448 1.76296E-02 7.11327E-02-1.91246E-03 5.00456E-02-1.30745E-03 1.51735E-03
 -1       449 1.30624E-01 6.94360E-01-9.38960E-03-2.54450E-01-1.50355E-03 3.78055E-04
 -1       450-2.50610E-02 7.40721E-01-1.22170E-03-1.82558E-01-3.35607E-03-4.07662E-03
 -1       451 3.79110E-02 5.02088E-01 1.19675E-02-3.40486E-01 1.90699E-03-3.25164E-03
 -1       452-1.13509E-01 3.87104E-01 2.80546E-03-1.32971E-02 7.57485E-05 1.58591E-03
 -1       453 6.25862E-02-6.66376E-03-5.56233E-03-7.50113E-01 2.59007E-03-3.23825E-03
 -1       454 9.24360E-02 7.59184E-02 3.14338E-03-6.93482E-01-4.67024E-03 2.18417E-03
 -1       455 3.99900E-02 1.93434E-01 2.04293E-03-5.59195E-01 2.72559E-04 3.32526E-04
 -1       456-2.47134E-02-1.03328E-01 1.30938E-03-7.02115E-01 9.21733E-04-4.35104E-03
 -1       457-8.72714E-01 1.19956E+00-1.31968E-02 3.22213E-01 9.11180E-03-5.87828E-04
 -1       458-4.79593E-01 1.54230E+00-2.65284E-02 2.71394E-01 3.93118E-02-2.07536E-02
 -1       459-9.16348E-02 1.83940E-01-6.61070E-03-9.93876E-03 1.91913E-02-8.83895E-03
 -1       460-4.33685E-01 8.34354E-01 1.73990E-02-7.83483E-03 1.18279E-02-2.15800E-02
 -1       461-1.67931E+00 2.71420E-01-3.60498E-02-6.63341E-01 1.69974E-03-2.20111E-02
 -1       462-8.88388E-06 1.36359E-01 2.48309E-04 5.11371E-02-2.81799E-03-2.26219E-03
 -1       463 5.20131E-02 9.12915E-02-2.66982E-03 1.13282E-01-3.84863E-03 4.99559E-03
 -1       464-1.27964E-01 8.74638E-01-5.88549E-03-2.57159E-01 1.55300E-02-8.67101E-03
 -1       465-2.14761E-01 7.34990E-01 8.29403E-03-1.74077E-01 8.35960E-03-8.49118E-03
 -1       466-1.60517E-01 9.14448E-01-1.16879E-02-1.26604E-01-9.54191E-05-3.08716E-03
 -1       467-3.71480E-02 2.78291E-01 8.69853E-03 1.09303E-01 1.47407E-03-1.11508E-02
 -1       468-1.97159E-01 5.04690E-01 9.88686E-04-2.49626E-02 1.00887E-03 2.34027E-03
 -1       469-2.35794E-01 5.39594E-01 1.45428E-04 8.53953E-02-5.65602E-05 1.88331E-03
 -1       470-2.41977E-01 6.56791E-01 3.78409E-03-8.10025E-02 2.47433E-03-1.92937E-04
 -1       471-4.30205E-01 9.96415E-01 9.11622E-03 6.76069E-01-1.61764E-03 3.03260E-03
 -1       472-6.81518E-01 1.33493E+00-1.69225E-02 6.20162E-01 2.91959E-03 6.89106E-03
 -1       473-2.80343E-01 6.27565E-01 3.77355E-03 2.59980E-01-1.78977E-03-5.12873E-03
 -1       474-1.24308E-01 5.41721E-01-4.74111E-03 4.67080E-01-4.47812E-03-2.96133E-03
 -1       475 4.13260E-01 1.48329E-01-1.18874E-02 4.61516E-01-6.60561E-03-1.00325E-02
 -1       476 2.46063E-01 4.97293E-01 1.65590E-02 6.66207E-01 1.09198E-02 1.86637E-02
 -1       477-1.34497E+00 9.09707E-01 1.03791E-02-1.60901E-02-9.96319E-03-2.38287E-03
 -1       478-1.56140E+00 7.49157E-01 2.82952E-02-2.21070E-01-6.78848E-03 3.61158E-03
 -1       479-1.42075E+00 5.76822E-01-1.98685E-02-4.01497E-01-1.18841E-02-1.25536E-02
 -1       480-9.98434E-01 1.33256E+00-7.03892E-03 3.95231E-01 1.10797E-02 9.87088E-03
 -1       481-1.22695E-01-1.54863E-01-7.40280E-04-6.89287E-01 1.88826E-03 1.90648E-03
 -1       482-2.59475E-01 7.95448E-01-9.58698E-03 6.21560E-01 3.27254E-03-2.27870E-03
 -1       483-6.04330E-01 1.00273E+00 1.36289E-02 4.45710E-01 6.84586E-03 4.85099E-03
 -1       484-5.63458E-01 8.35817E-03 2.62508E-03-6.60569E-01-3.64564E-03-1.98506E-03
 -1       485-3.03511E-01-4.40954E-02 3.02461E-03-6.28822E-01 2.19719E-03 1.73547E-03
 -1       486-2.19926E-01 8.28675E-02-3.82417E-03-6.18466E-01 4.91061E-04 2.68140E-04
 -1       487-2.65131E-01 6.80886E-01-4.74342E-04-1.72670E-01 3.64156E-03 1.94615E-03
 -1       488-2.08157E-01 8.37672E-01-4.75044E-03-1.35165E-01-2.75040E-03 3.06003E-03
 -1       489-3.47965E-01 8.23205E-01 3.09307E-03-9.59621E-02-7.72540E-03 5.00487E-03
 -1       490-7.70038E-01 1.38443E-01 3.55372E-03-6.19605E-01 1.25249E-03-3.71474E-03
 -1       491-6.07283E-01 3.17171E-01-1.06715E-02-4.78615E-01 6.86628E-04-4.38959E-03
 -1       492-9.96669E-01 3.21081E-01 1.23409E-02-5.89208E-01-8.54707E-05 1.00387E-02
 -1       493-3.20546E-01 7.49942E-01-2.85824E-03-1.33401E-02-6.18588E-04-8.42987E-05
 -1       494-6.39445E-01 8.74870E-01 2.40113E-03 1.83691E-01 9.91358E-04-2.74032E-03
 -1       495-8.19417E-01 9.31080E-01-1.14133E-02 1.65062E-01-6.14493E-03-4.84612E-03
 -1       496-1.14199E+00 6.88800E-01-7.82781E-03-2.52640E-01 2.50112E-03-7.73148E-03
 -1       497-1.09328E+00 1.05371E+00 7.50781E-03 2.15611E-01 3.17350E-03-5.11279E-03
 -1       498-3.89355E-01 7.29836E-01 1.85432E-03 2.28615E-01 3.83017E-03 5.03596E-03
 -1       499-1.44159E-01 3.05757E-01 2.08969E-03-4.70132E-01 8.07385E-05-1.36405E-03
 -1       500-5.23434E-01 7.93724E-01-2.61789E-03 5.54466E-02 2.58268E-03-7.28017E-03
 -1       501-1.08274E+00 9.12255E-01 4.91554E-03-4.73664E-02 5.07374E-03-8.29329E-03
 -1       502-4.99995E-01 8.15204E-01-6.07351E-03-4.67457E-02 1.16589E-03 2.35414E-04
 -1       503-3.81012E-01 4.20233E-01 2.32967E-03-3.72636E-01-3.64387E-03-5.22315E-04
 -1       504-1.12706E-01 5.15721E-01 2.86338E-03-3.09796E-01-6.50530E-07 3.60016E-04
 -1       505-7.77997E-01 6.15573E-01-2.09363E-03-2.64507E-01-4.40710E-03 2.51344E-03
 -1       506-5.49060E-01 5.49400E-01 2.73583E-03-3.04953E-01-2.66814E-03-2.71386E-03
 -1       507-5.47321E-01 6.88185E-01-1.49245E-03-1.45511E-01-1.69660E-03-5.64754E-04
 -1       508-5.51024E-01 7.43429E-01-6.70653E-03-8.52483E-02 5.53313E-03-1.15550E-03
 -1       509-3.76621E-01 6.83051E-01-3.18362E-03-1.58641E-01 3.49835E-03 2.47472E-03
 -1       510-2.37605E-01 6.01119E-01-5.74005E-03-2.34704E-01-4.05267E-04 2.79847E-03
 -1       511 1.57871E-01 1.22660E+00-6.15899E-03-3.88024E-01-1.05359E-02 2.74259E-03
 -1       512 8.05482E-02 9.10637E-01-6.00754E-03-2.48412E-01-6.75641E-03-4.18925E-03
 -1       513 3.54612E-02 7.29357E-01-1.21030E-02-2.02987E-01-5.32978E-03-6.71400E-03
 -1       514 2.46858E-02 4.86209E-01-5.48615E-03-1.80918E-01 1.10815E-02 3.36173E-03
 -1       515 1.32559E-01 5.69842E-01 1.56956E-03-4.37146E-01-4.64746E-04-1.45125E-03
 -1       516-2.18887E-01 2.21973E-01-9.24246E-03-2.75266E-01 5.28219E-03-1.04613E-02
 -1       517-2.60216E-01 7.72472E-03 8.17486E-03-5.98153E-01-1.44248E-02-1.00422E-02
 -1       518-1.21532E-01 2.13085E-02 2.22987E-03-6.16367E-01-2.13936E-03-1.28884E-02
 -1       519-8.09395E-02 4.53519E-03 6.04239E-03-6.41365E-01-2.16965E-03-8.55485E-03
 -1       520 1.72091E-01-1.60239E-02-1.70227E-03-6.48199E-01 8.87667E-04-9.83280E-03
 -1       521 1.15117E-02 1.61854E-03-9.63536E-03-7.28619E-01-9.26639E-03-7.35151E-03
 -1       522 2.62185E-01-2.13388E-02 4.30462E-03-5.84350E-01 1.11755E-03-7.91664E-03
 -1       523 4.23871E-01-5.03847E-02-2.33661E-03-5.47725E-01 1.48582E-02-2.18555E-03
 -1       524 1.41927E-01-3.26365E-02 3.25581E-03-7.11355E-01-3.08937E-03-4.11378E-03
 -1       525 4.23112E-01-2.55200E-03-2.99825E-03-4.90775E-01-9.14330E-03 3.74662E-03
 -1       526 8.80401E-02-8.69248E-02 1.16748E-03-2.93882E-01 6.67708E-03 5.13822E-03
 -1       527 4.08167E-02-4.31339E-01 2.01269E-03-8.12940E-02-1.02760E-02-1.06581E-03
 -1       528 1.63156E-01-8.97072E-02 1.45035E-03-4.85873E-01 6.92267E-03 1.48783E-03
 -1       529 1.05754E-02-5.01860E-01 1.20768E-03-1.35951E-01-8.01282E-03 6.77579E-03
 -1       530-1.50550E-02-7.69408E-01 2.07475E-03-1.64214E-01-6.70474E-03 9.89331E-04
 -1       531-2.39791E-02-9.86746E-01-1.12495E-02-1.79998E-01-6.87940E-03-5.84586E-03
 -1       532-3.96177E-02-1.23199E+00 2.70821E-04-2.66072E-01-1.31018E-02-8.81880E-03
 -1       533-8.54667E-02-1.66230E+00-7.29107E-03-3.34505E-01-3.73181E-03-8.88444E-03
 -1       534-1.10733E-01-9.13521E-01 7.47839E-05-4.69749E-01-8.24298E-03-7.61231E-03
 -1       535-2.02887E-01-1.81180E+00-2.84096E-04-5.24639E-01 4.29364E-03-2.83272E-02
 -1       536-2.97066E-01-2.71330E+00 6.33861E-02-1.00903E+00 1.10292E-01-4.25712E-02
 -1       537-4.19928E-01-1.36464E+00-1.40035E-02-8.45096E-01-5.35816E-03-7.96769E-03
 -1       538-5.50688E-01-1.57826E+00 6.90941E-01-9.12365E-01 3.17100E-01 1.28004E-01
 -1       539-3.37384E+00-3.59889E+00-5.86155E-01-2.99388E+00-2.99008E-02-1.44396E-01
 -1       540-1.44872E+00-1.46626E+00-3.94446E-02-1.41444E+00 2.29441E-03 1.90595E-02
 -1       541-4.14005E+00-1.78484E+00-3.82578E-01-1.44052E+00 8.63605E-02-8.11764E-02
 -1       542-2.00654E+00-1.13666E+00-3.81426E-02-6.67921E-01 3.23426E-02-8.00043E-02
 -1       543-1.79088E+00-4.17052E-01 4.75179E-01-6.62080E-01 9.85709E-02 1.83837E-01
 -1       544-1.15888E+00-7.29709E-01-1.87695E-01-3.91225E-01-2.56130E-02-1.10674E-01
 -1       545-4.24758E-01-4.24467E-01 4.94637E-02-2.28230E-01-4.33789E-02 1.16740E-02
 -1       546-1.49833E+00-2.64748E-01 6.92823E-02-1.20743E-01-3.76840E-02 3.59380E-02
 -1       547-5.34204E-02-2.27790E-01-4.53750E-02-8.25054E-02-2.41940E-03-1.80640E-02
 -1       548 1.85615E-01 6.47213E-02-1.55304E-02 8.56866E-02 2.19011E-03 2.99138E-02
 -1       549 3.83920E-01 7.19017E-01 1.39045E-01 2.16185E-01 9.24388E-02 3.05302E-02
 -1       550 5.50184E-01 1.41826E+00 3.61568E-02 3.82612E-01 7.34085E-02 1.69664E-02
 -1       551 1.00554E+00 3.16788E+00 3.11530E-01 6.81000E-01 1.42279E-01 8.77491E-03
 -1       552 2.25376E-02 9.47776E-01-3.16088E-02 1.66351E-02-3.63076E-02 2.97836E-02
 -1       553 2.27029E+00 3.99284E+00 7.20149E-01 2.54873E+00 1.19383E-01-2.23370E-02
 -1       554 2.37876E-01 2.89164E-01-9.10566E-01 5.87670E-01-3.50713E-02-9.39612E-02
 -1       555-8.19601E-02 1.72878E+00-4.20204E-01 4.13639E-01-2.06298E-01-1.08291E-01
 -1       556 1.99562E+00 3.61174E-01 6.40254E-02 8.68058E-01 1.09806E-01 5.33254E-02
 -1       557 1.01416E+00 1.80303E-01 6.81470E-02 5.13180E-01 1.32693E-03 1.28436E-02
 -1       558 6.31397E-01 1.58571E+00 1.51555E-03 1.58093E+00-1.16260E-02 7.40597E-02
 -1       559 5.86108E-01 5.97119E-02 7.11554E-04 1.82262E-01 1.00587E-02 6.90523E-03
 -1       560 2.12367E-01 2.96120E-02 6.68810E-03 1.38568E-01 2.73261E-04 3.02204E-03
 -1       561 5.84832E-01 2.58938E-01-1.15092E-02 6.46754E-01 3.15772E-04-1.41399E-02
 -1       562 1.06471E-01 2.77513E-02 4.56816E-03 5.64711E-02 3.03367E-03 1.47324E-03
 -1       563 3.57298E-02 1.80139E-02 3.43228E-04 3.88991E-02 1.29566E-03-8.04967E-04
 -1       564 1.88962E-01 7.06662E-02 9.03066E-04 1.95575E-01 1.67360E-03-1.26521E-03
 -1       565 9.57777E-04 1.03388E-02 1.21967E-03 6.47279E-03 8.39125E-04 7.35138E-04
 -1       566 1.27657E-03 9.01573E-03 1.80074E-03 6.28844E-04-3.86525E-04-1.10250E-03
 -1       567 5.27186E-02 3.55882E-02 1.18541E-03 5.09635E-02-5.50285E-05-5.99894E-04
 -1       568-1.03112E-02 3.91089E-03-9.12290E-04-9.93088E-03-6.38188E-04-4.89811E-04
 -1       569 3.78014E-04 4.74035E-03 3.42196E-04-1.06778E-02-4.02198E-04-6.08714E-04
 -1       570 3.57768E-03 1.47681E-03 5.30141E-05-1.46824E-02-1.39703E-03-2.69236E-04
 -1       571 1.58418E-02 1.39384E-02-8.25336E-04-5.46744E-04-8.07279E-04-4.71664E-04
 -1       572-1.50478E-02 9.34126E-02 7.21784E-04-8.64414E-03-1.22583E-03 5.95563E-04
 -1       573-1.69330E-02 7.91387E-02-8.32225E-04-1.86385E-02-1.09496E-03 1.44990E-04
 -1       574-1.18996E-05 6.32915E-02-1.24815E-03-4.33637E-02 6.27498E-04-5.85661E-04
 -1       575 1.11755E-02 4.57638E-02 4.14276E-04-3.70775E-02 2.28264E-03-3.32554E-03
 -1       576-2.12538E-02 1.91008E-01 1.92205E-03-5.31175E-02-2.35517E-03 1.17077E-03
 -1       577 8.69950E-03-1.56110E-02-7.34372E-04 4.78036E-03-1.52039E-03 2.10998E-03
 -1       578 5.25476E-02 2.87723E-02 5.97183E-03-4.58004E-02-2.30413E-03 5.76144E-03
 -1       579 2.01705E-01 8.66479E-02-1.83745E-02-1.63330E-01-5.97990E-03-1.68002E-02
 -1       580 5.61178E-01 1.22241E+00-1.48489E-03-5.53116E-01 2.03375E-02 6.19799E-03
 -1       581 3.39229E-01 1.30493E+00-8.89585E-03-3.53655E-01 1.14321E-02 2.05138E-02
 -1       582 3.16856E-01 3.61110E-01-9.45409E-03-3.47892E-01 1.59012E-02-3.31974E-02
 -1       583 5.88904E-01 1.00743E+00 5.26985E-02-6.66605E-01 2.25184E-02-8.19154E-03
 -1       584-2.36004E-01-3.24389E-01-1.65542E-02-1.82953E-01-1.91326E-02-4.24610E-02
 -1       585 1.09857E-01-7.81328E-02 2.96001E-02 7.05148E-02 1.05262E-02 3.06699E-02
 -1       586 1.99578E-01 2.80212E-01 2.95194E-03-2.72174E-01-2.05916E-03-1.12905E-02
 -1       587 2.14647E-02 5.66986E-01-1.47562E-02-3.46494E-01-1.64596E-02 2.26135E-02
 -1       588 8.31318E-02 2.72253E-01 1.24793E-02-2.12093E-01-3.97575E-03 6.95048E-03
 -1       589 4.06958E-02 6.52077E-02 1.06553E-04-4.32215E-02-9.35555E-04 2.05166E-03
 -1       590 7.82057E-03 4.27673E-02-5.33372E-04 1.18503E-02-3.37303E-04-2.07373E-04
 -1       591-3.28075E-04 6.33901E-02-1.22195E-03 1.81223E-02 4.18158E-04 7.10949E-05
 -1       592-1.55003E-02 1.70061E-01 1.21217E-03 3.03945E-02 6.43471E-04-8.16934E-05
 -1       593 2.99226E-01 1.12168E+00-7.23462E-03-4.07997E-01 1.56524E-02 2.11726E-02
 -1       594 1.99193E-01 9.60402E-01-1.54132E-03-1.79616E-01 1.38102E-02 9.15490E-03
 -1       595 5.00912E-02 9.42566E-01-7.55292E-03-2.87917E-01-6.62322E-03 1.22865E-02
 -1       596 4.06150E-01 8.05136E-01 4.47176E-03-4.64966E-01 1.54329E-04 1.66774E-02
 -1       597-1.80568E-01 1.28216E-01 5.46175E-03-4.62195E-01-4.58499E-03-1.47081E-02
 -1       598 6.95553E-03 2.04954E-01-2.51867E-03-5.35620E-01-2.88816E-03-3.50161E-03
 -1       599 1.03335E-01 2.95880E-01-5.45202E-03-5.24280E-01 2.41215E-03-3.87292E-03
 -1       600 7.76093E-02 1.98205E-01 8.34251E-03-6.60580E-01 8.21399E-03-3.64886E-03
 -1       601 1.76867E-01 4.44963E-01-3.02415E-03-5.55719E-01 2.61123E-03-3.24940E-03
 -1       602 6.56944E-04-4.31194E-01-7.69389E-03-3.24331E-01-6.90971E-03 3.95419E-03
 -1       603 1.30500E-02-6.71351E-02 9.80145E-03-7.47596E-01 4.23355E-03 1.35435E-03
 -1       604 4.60911E-02-1.48193E-01-3.82371E-03-6.46560E-01 2.32061E-03 2.62282E-04
 -1       605 1.33981E-02-3.34757E-01 1.29569E-03-4.74327E-01 4.78568E-03-2.95787E-04
 -1       606-4.41251E-01-6.41670E-01 1.15103E-02-7.19530E-01 2.39699E-04-3.12786E-03
 -1       607-7.35632E-01-7.44066E-01 2.34833E-03-9.52731E-01 1.42359E-02 8.70337E-03
 -1       608-1.03193E+00-5.84477E-01 1.06057E-02-9.81726E-01 1.07413E-02 1.49717E-02
 -1       609-1.50309E+00-3.78310E-01 1.34861E-02-1.07323E+00 1.26801E-02 1.80601E-02
 -1       610-9.88264E-01-5.97858E-02-1.19809E-02-7.72543E-01 2.43578E-03 9.45695E-03
 -1       611-1.86077E+00-1.18328E-01 1.76619E-02-9.96145E-01 1.24292E-02 1.91082E-02
 -1       612-2.06486E+00 2.63761E-01 1.27841E-02-4.49316E-01-2.49202E-02 4.04311E-02
 -1       613-1.45138E+00 3.34693E-01-7.15770E-03-6.14417E-01 1.11894E-03 5.14984E-03
 -1       614-1.71310E+00 3.73519E-01 2.97977E-02-2.06615E-01-2.15024E-02 2.46988E-02
 -1       615-1.02720E+00 4.25449E-01 6.38786E-03 1.14238E-02-1.47198E-02 2.69060E-03
 -1       616-1.44849E+00 8.21025E-01-1.25314E-02-1.43885E-01-2.60852E-03 3.32437E-04
 -1       617-5.73180E-02 6.15096E-02 2.05666E-02-3.13411E-02-1.64481E-02 3.98102E-02
 -1       618-4.13324E-01 1.71681E+00 8.53922E-03 2.75365E-01-1.37925E-02 1.28036E-02
 -1       619-3.77693E-01 1.94744E+00-5.02374E-02 8.49246E-01-7.15484E-02 1.97023E-03
 -1       620-1.16266E-01 1.63639E+00-5.91355E-02 1.05133E+00-6.14490E-02-6.70906E-02
 -1       621 1.76338E-01 1.06317E+00 2.07979E-02 1.05912E+00-5.72059E-03-1.01913E-02
 -1       622-5.85064E-01 1.46990E+00-1.08483E-02 7.18756E-01-1.72489E-02 2.62559E-03
 -1       623 4.14711E-01 5.05239E-01-1.22759E-02 7.98831E-01 7.17070E-03-1.00975E-02
 -1       624 1.86571E-01 2.67380E-01-1.60940E-03 4.40472E-01 4.34579E-03 1.66565E-03
 -1       625-4.68627E-02 8.83123E-01 6.77931E-03 8.16012E-01-2.90185E-03-4.77796E-03
 -1       626 1.89366E-01 1.74577E-01 2.94419E-03 2.85696E-01 9.64090E-04-1.21520E-03
 -1       627 7.93275E-02 1.24086E-01-1.86410E-03 1.61060E-01 2.56437E-03 1.90767E-03
 -1       628 7.56512E-02 3.40650E-01-6.12391E-04 3.98686E-01-8.33311E-04 2.03644E-03
 -1       629 2.85182E-01 6.37356E-01-1.48189E-02-3.47190E-01 6.82622E-04 1.86415E-02
 -1       630 2.92071E-01 5.60395E-01 3.94787E-03-4.81540E-01 1.16774E-04-7.33285E-03
 -1       631 2.52701E-01 3.46448E-01 5.41525E-03-5.44089E-01 1.18874E-03 3.98097E-04
 -1       632-6.92631E-02-4.21059E-01-1.80893E-03-5.64590E-01 1.69105E-03 3.78772E-04
 -1       633 1.02650E-01 5.83903E-02-7.25533E-03-7.14683E-01-5.31592E-03-3.89916E-03
 -1       634 6.26695E-02 2.10159E-02-2.50741E-03-7.20638E-01-6.06135E-03 3.10329E-04
 -1       635-1.15166E-01 5.98864E-01 9.84518E-03-2.24149E-01-5.32476E-03 2.02699E-03
 -1       636-1.01052E-01 8.24609E-01-5.75944E-03-3.10712E-01-1.11668E-02 3.66681E-03
 -1       637-1.35885E-01-4.52317E-01 5.05426E-03-5.66706E-01 2.22712E-03-3.19846E-03
 -1       638-2.52965E-01-6.57901E-01-7.43670E-03-6.77207E-01 1.98906E-03 1.09206E-03
 -1       639-1.30092E-01 9.20602E-01-6.89785E-03-1.68758E-01-1.74176E-03-4.35987E-04
 -1       640-3.80703E-01-2.26265E-01 6.31689E-02-6.00274E-02-4.77166E-02 8.18348E-03
 -1       641-6.02710E-01 7.04392E-01-2.46438E-03 4.09879E-02-1.19018E-02 7.51876E-03
 -1       642-6.16618E-01 1.30572E+00-4.97301E-03 1.49348E-01-1.92334E-02 5.64213E-03
 -1       643 2.24614E-02 1.60155E-01-7.80798E-04 1.45077E-01-1.03799E-04 4.67734E-04
 -1       644 5.61806E-02 9.08231E-02 2.24381E-03 8.73332E-02-9.78357E-04 1.39170E-03
 -1       645 1.88753E-01 7.41725E-01-6.66772E-03-2.57894E-01 2.91197E-03 6.16507E-03
 -1       646 1.24524E-01 5.51177E-01 2.20427E-03-3.39351E-01 1.30606E-03-1.88781E-03
 -1       647 3.91193E-02 7.76207E-01 1.94745E-03-1.80999E-01 4.60291E-03 8.03490E-03
 -1       648 2.48939E-02 7.06557E-02-1.46534E-04 3.92039E-02-1.25342E-03 6.71834E-04
 -1       649 1.54884E-02 5.60807E-02-2.24153E-03 2.21899E-02 6.66008E-04 3.78443E-04
 -1       650-1.20879E-01 3.62584E-01-9.76130E-04-2.26111E-02 1.68641E-03-9.87429E-05
 -1       651-9.32825E-02 3.50998E-01-1.67239E-03-8.00149E-02 1.89533E-03 4.16927E-04
 -1       652-1.21815E-01 5.06001E-01 5.38583E-03-1.42858E-01-3.65076E-03-1.48743E-03
 -1       653-1.40650E-02 2.66096E-01-1.65488E-03-1.62265E-01-5.16746E-04-6.26591E-05
 -1       654-5.49647E-02 2.76124E-01 6.86762E-04 1.28966E-01-1.70051E-03-4.60172E-04
 -1       655-1.07340E-01 3.18635E-01-3.30373E-03 7.63119E-02-3.62044E-04-1.22557E-03
 -1       656-1.42715E-01-1.94801E-01-1.54384E-03-7.04721E-01 1.38410E-03-2.08283E-03
 -1       657-4.73642E-01-2.25862E-01-2.39211E-03-7.39364E-01 1.46942E-03-1.27364E-03
 -1       658-5.65750E-02 3.50580E-01-5.03857E-04 2.30338E-01-3.68071E-04-3.59966E-03
 -1       659-1.88923E-01 5.06314E-01-6.61095E-04 8.73880E-02-2.13427E-03-1.86021E-03
 -1       660 6.84589E-02 1.44368E-01 2.34883E-03-1.24613E-01 2.10882E-03-2.05208E-03
 -1       661-7.60933E-01 2.36274E-01-2.51905E-03-5.38458E-01 5.11739E-03 8.00761E-03
 -1       662-9.59143E-01 4.31605E-01 9.05725E-03-4.75970E-01-7.73376E-03 1.72511E-03
 -1       663-2.50238E-01 6.58630E-01-2.83082E-03-1.01357E-01 4.52010E-04 1.51922E-03
 -1       664-7.34941E-02 4.57819E-01-3.71196E-05 3.83401E-01-2.47798E-03-3.93521E-03
 -1       665-2.93306E-01 8.44142E-01 5.25307E-03-1.03613E-01 2.07178E-03 6.16349E-04
 -1       666-2.05518E-01 8.64922E-01-8.01199E-03-1.22435E-01 4.17347E-04-5.46949E-03
 -1       667-1.11248E+00 5.96433E-01 5.08158E-03-3.53369E-01-7.16250E-03-6.52844E-03
 -1       668-1.26804E+00 8.09258E-01 1.60302E-02-1.86018E-01 3.62634E-03-4.36050E-03
 -1       669-8.60899E-01 7.50576E-01-2.00481E-03-1.39317E-01-3.40238E-03-2.34959E-04
 -1       670-9.97329E-01 1.32337E+00-4.69255E-04 2.33954E-01-1.59578E-02 7.21754E-04
 -1       671-5.61984E-01 1.06946E+00-2.20111E-02 5.98289E-01-3.83057E-03-4.05867E-03
 -1       672-3.27248E-01 7.62066E-01 1.82929E-03 5.04455E-01 1.32539E-02 1.14513E-02
 -1       673-2.45537E-01 6.00045E-01 7.18500E-03 1.71565E-01 4.44910E-03 6.22025E-03
 -1       674-2.79781E-01 6.29074E-01 4.22222E-03 3.39490E-02 2.74996E-03-2.52218E-03
 -1       675-3.23357E-01 7.38006E-01-5.00680E-03-4.87718E-02 1.20963E-03-7.19779E-03
 -1       676-3.69938E-01 7.27451E-01 6.42955E-03 3.03984E-01 1.11271E-02 4.92386E-03
 -1       677-1.22308E+00 1.14039E+00-6.05204E-03 1.90588E-01-1.69331E-02 3.52507E-03
 -1       678-9.93034E-01 1.37259E+00-8.82612E-03 3.57676E-01-1.30691E-02 8.81943E-03
 -1       679-7.88115E-01 1.32627E+00 5.74216E-03 5.76689E-01-6.03618E-03 2.45006E-03
 -1       680-1.43539E+00 9.73417E-01-4.38654E-03-6.89453E-02-3.20065E-03 2.72698E-03
 -1       681-3.47849E-01-4.03057E-03 9.49509E-03-4.72148E-02-5.06732E-03 1.84644E-02
 -1       682-5.02050E-01 1.86391E-01 1.86390E-03-5.33255E-01-6.65025E-04 1.79505E-04
 -1       683-5.07013E-01 8.26330E-01-1.86633E-03 2.15264E-01 2.04141E-03-3.57343E-04
 -1       684 7.91164E-02 2.44607E-01 9.03152E-03-5.83157E-01-6.77396E-03 4.36690E-03
 -1       685-9.50931E-02 7.30934E-03-5.18696E-03-6.42600E-01 8.78643E-03 1.92252E-03
 -1       686-1.92487E-01 7.42463E-01-4.88385E-04-1.41931E-01-2.32309E-03-3.27062E-03
 -1       687-3.99492E-01 7.95574E-01-2.12377E-03 1.22911E-02-7.56111E-03-1.12119E-02
 -1       688-1.06121E+00 1.03607E+00-1.57712E-02 1.22490E-01 4.36211E-04-4.20625E-03
 -1       689-8.98922E-01 1.11041E+00-1.88838E-03 3.46908E-01 2.07890E-03 4.57854E-03
 -1       690-2.18991E-01 6.87872E-03-7.94149E-03-6.26032E-01 2.59376E-03 1.88714E-03
 -1       691-4.35244E-01 4.22719E-01 1.80710E-03-3.83776E-01 2.14571E-04 2.53298E-03
 -1       692 3.56619E-02 3.37433E-01-9.84110E-04-4.67270E-01-3.85671E-03-4.40716E-04
 -1       693-6.21944E-02 4.31789E-01-4.09108E-03-3.66285E-01-1.78941E-03-1.94873E-03
 -1       694-3.63283E-01 5.90843E-01-2.84739E-03-2.48300E-01 1.21613E-03 2.13852E-03
 -1       695-5.43975E-01 6.83275E-01-5.56817E-04-1.53919E-01 5.96228E-04-2.30594E-04
 -1       696-5.53998E-01 8.26459E-01-2.72441E-03 9.79043E-02 4.24682E-03-3.26409E-05
 -1       697-8.34068E-01 9.13020E-01 5.64509E-03 1.53827E-01 6.28845E-03 1.27234E-04
 -1       698-6.64285E-01 8.31125E-01 4.58342E-03-3.79246E-02 5.51411E-03-1.08772E-03
 -1       699 7.36193E-01 2.13987E+00 1.25201E-01-9.82704E-01 5.54020E-02-4.60005E-02
 -1       700 7.40658E-01 2.14546E+00 1.30318E-01-9.84228E-01-4.94137E-02 4.20120E-02
 -1       701 9.75803E-01 4.93346E-01 2.69101E-02-6.34583E-01 2.00872E-02-7.86111E-03
 -1       702 9.79536E-01 4.96910E-01 2.30968E-02-6.38001E-01-1.72509E-02 8.93309E-03
 -1       703 9.11469E-01 1.31192E+00 1.33543E-01-9.23219E-01 1.29637E-03-1.74263E-03
 -1       704-7.31737E-03-1.30503E-03 3.46975E-03 7.16410E-03 5.13034E-04 2.01664E-03
 -1       705-4.68337E-03-4.27510E-03 4.19471E-03 8.35219E-03 1.08366E-03-2.56081E-03
 -1       706 2.50049E-02-2.81495E-03-4.44143E-02-8.28389E-03 2.14631E-03 8.99902E-03
 -1       707-1.42635E-02-1.50914E-02-4.22237E-02 1.93828E-02-1.73476E-03-8.00046E-03
 -1       708-2.96165E-02-9.76732E-03-3.78859E-03 1.74952E-02-4.14340E-04-4.44867E-03
 -1       709-4.11077E-02-1.41926E-02-5.85910E-03 1.59144E-02 1.76863E-03 6.39129E-04
 -1       710-1.79116E-02-1.14603E-02 1.09614E-03 1.18786E-02-2.57890E-04-2.10257E-03
 -1       711-5.57265E-03-7.05382E-03-3.96443E-02 7.65364E-03-3.02889E-03 5.09924E-03
 -1       712-4.95341E-02-2.29213E-02-1.08695E-02 2.99505E-02 8.14746E-05 1.42333E-03
 -1       713-2.53563E-04-4.76964E-05 3.13627E-03-1.21303E-02 7.84002E-05 1.57402E-04
 -1       714-3.92615E-03-3.04220E-02 2.28749E-03 3.50933E-03 2.11880E-03-8.81149E-04
 -1       715-4.75605E-03-2.83216E-02 1.55185E-03-2.65928E-06-1.10657E-03 1.46398E-03
 -1       716-2.60596E-03-4.33943E-04 1.61232E-03-1.34644E-02-9.72636E-04 5.52887E-04
 -1       717 2.52446E-04 3.41195E-03 4.94131E-04-9.07983E-03 8.29367E-04-6.39089E-04
 -1       718 1.30077E-03-1.55798E-02-6.86920E-04-1.10705E-02 6.79556E-04-3.05724E-06
 -1       719 7.80490E-03-2.15649E-04 1.66784E-03-1.54801E-02 1.01989E-03-9.56977E-04
 -1       720 5.16495E-03 1.11234E-02 1.19309E-03-1.18573E-02 6.18967E-04 6.09409E-04
 -1       721 1.71407E-03-5.05451E-02-3.36516E-04-2.62937E-03-2.15083E-05-2.22586E-03
 -1       722-8.16697E-03-3.76650E-02-5.37345E-04 3.22571E-04 3.05254E-04-2.09554E-04
 -1       723 3.50409E-03-5.07862E-02-1.07277E-03-3.80847E-03 6.59829E-04 2.53330E-03
 -1       724 1.61087E-03-4.43827E-02-9.86551E-04-1.20738E-02 8.29043E-06-2.16658E-04
 -1       725 4.08425E-03-2.15283E-02-1.53330E-04-1.60087E-02 3.81455E-04-3.60034E-04
 -1       726-3.55542E-04-9.89422E-03 5.10428E-04-1.63259E-02-5.15975E-04-3.87117E-04
 -1       727 6.15793E-03-3.57483E-02-8.61280E-04-1.41789E-02-4.62148E-04-1.16231E-04
 -1       728 5.77944E+00 1.21026E+00 7.36520E-01 1.95682E+00-3.08920E-02-1.36506E-01
 -1       729 5.89091E+00 1.34968E+00 7.73181E-01 2.08845E+00-1.13018E-01-9.57254E-02
 -1       730 6.14152E+00 4.26338E-01 6.00092E-01 1.35510E+00-3.68253E-02-9.12786E-02
 -1       731 1.63222E+00-1.97346E-01-2.25130E-01-6.58260E-02-3.93736E-02 1.93273E-01
 -1       732 2.37240E+00-6.06126E-01-2.47623E-01 5.36216E-02 8.10037E-02-1.90296E-01
 -1       733-1.73231E-02-1.40490E-03 1.20966E-03-6.34451E-03-1.14807E-04 2.21332E-03
 -1       734-1.88661E-02 1.06030E-03 3.77109E-04-2.11069E-03-3.17431E-04-2.56439E-03
 -1       735-1.72115E-02 1.74973E-04 2.13199E-03-6.35896E-03 3.49467E-04-4.13098E-04
 -1       736-3.54695E-02-3.97852E-03 1.05693E-04-8.65053E-03 5.77666E-04 2.21284E-03
 -1       737-3.35731E-02-4.23125E-03-1.01077E-03-5.67466E-03-2.33819E-04-2.47399E-03
 -1       738 1.13588E+00-7.10454E-02-8.93634E-02 5.16853E-02-1.90719E-02-6.33092E-02
 -1       739 2.18515E-01-1.36686E-02-6.97259E-03 6.06366E-03-2.02330E-03-8.48361E-03
 -1       740 5.17725E-01-3.28404E-02-3.47285E-02 2.05537E-02 1.77510E-03-1.97955E-02
 -1       741-5.41684E-02-9.10852E-03-2.46788E-03-1.02821E-02-4.57058E-05 1.16527E-03
 -1       742-1.68917E-02-9.18356E-03-5.71853E-03-2.10749E-03 9.29704E-04 5.00732E-03
 -1       743-4.81602E-02-6.05121E-03-2.62200E-03-6.83567E-03 1.86249E-04 2.45710E-03
 -1       744 1.02033E+00-8.01679E-03-9.71026E-02 1.05970E-01 3.58394E-03 4.87594E-02
 -1       745-5.35015E-02-7.11819E-03-1.95549E-03-1.01124E-02-1.64995E-04-3.00274E-03
 -1       746 4.42560E-02-1.84413E-02-7.93036E-03-1.48999E-02 4.66881E-04 7.00325E-03
 -1       747-2.43435E-02-1.39375E-01-3.37093E-02 1.85196E-02-1.04315E-02 8.18807E-03
 -1       748-3.68129E-02-1.30516E-01-3.68126E-02 5.83171E-02 4.19275E-03 7.98917E-09
 -1       749 7.43617E-01 2.64504E+00 6.42872E-01 6.46599E-01 1.70324E-01 2.35572E-02
 -1       750 9.85514E-01 2.77901E+00 7.15461E-01 8.56807E-01-2.34333E-01 5.81335E-02
 -1       751-7.90982E-03-2.80420E-02-7.90948E-03 1.07254E-01-2.54886E-03 2.93652E-08
 -1       752 3.81431E-01 1.35235E+00 3.81433E-01 5.22878E-01-6.50900E-02 1.62861E-08
 -1       753 2.58245E-01 8.27665E-01 2.25045E-01 3.51148E-01 8.80404E-02-2.49881E-03
 -1       754 8.06680E-02 1.67905E-01 4.11846E-02 1.85238E-01 6.36264E-03 2.39135E-04
 -1       755 1.05057E-01 8.73359E-02 3.50902E-02 1.89281E-01-2.79105E-02 3.03036E-02
 -1       756 2.44669E-01 8.67467E-01 2.44671E-01 4.82965E-01-1.59824E-01 3.93219E-08
 -1       757-3.41457E+00-9.56492E-01-7.97456E-01-1.34478E+00-3.92336E-02-2.18493E-01
 -1       758-3.51951E+00-9.92679E-01-9.92686E-01-1.35868E+00-9.40798E-09 3.34676E-01
 -1       759-9.69340E-02-4.74568E-02-2.65890E-02-1.08185E-01-9.55602E-03-1.98081E-02
 -1       760-1.54761E-01-4.36493E-02-4.36505E-02-1.60125E-01-4.61413E-08 3.09530E-02
 -1       761-1.79845E+00-5.07253E-01-5.07258E-01-1.02168E+00-1.64556E-07 9.51187E-02
 -1       762-3.24694E-01-9.15791E-02-9.15803E-02-2.51910E-01-4.36366E-08 2.93843E-02
 -1       763-5.52761E-01-2.92750E-01-1.51597E-01-3.73430E-01 1.15496E-02-3.12956E-02
 -1       764-1.19989E+00-4.25728E-01-3.42400E-01-7.10368E-01-1.14921E-02-1.14607E-01
 -1       765-1.29369E+00-5.39160E-01-4.09658E-01-7.78421E-01 6.80935E-02 2.47881E-01
 -1       766-5.54980E-01-2.48240E-01-1.26358E-01-3.72782E-01-2.18311E-02 8.02500E-02
 -1       767 5.87961E-02-5.56125E-01-3.14935E-02-8.26034E-02 2.10917E-02-2.16723E-03
 -1       768 5.35176E-02-4.86071E-01-3.03705E-02-8.80399E-02 6.85169E-03-5.70972E-03
 -1       769-5.49297E-02-5.64435E-01-5.65136E-02-3.81317E-03-5.40447E-03-8.47012E-03
 -1       770-1.14478E-01-6.87257E-01-3.68331E-02 6.84239E-02 4.27155E-03-1.10588E-02
 -1       771-2.22880E-02-7.62016E-01-3.78546E-02 8.07264E-02-1.38409E-02 1.07470E-02
 -1       772-1.66511E+00-8.38175E+00-1.03919E+00-2.60955E+00 2.94399E-02 4.69917E-02
 -1       773-8.04242E-01-7.99317E+00-8.72957E-01-1.81283E+00-1.83220E-01-3.69944E-02
 -1       774-2.87279E-02-8.13027E-01-2.30896E-02 4.70790E-02-3.77118E-03 4.19393E-03
 -1       775 1.22239E-02-1.16772E+00 5.32427E-03 1.18060E-02 8.88252E-03 1.64745E-03
 -1       776 6.20865E-03-9.85386E-01 5.43196E-03 8.97996E-03 4.85165E-03-2.67790E-04
 -1       777 8.86927E-02-1.79498E+00 4.47051E-02 6.52103E-02 2.43903E-02-2.41285E-04
 -1       778 1.02406E-02-1.40949E+00 1.80704E-02 2.88880E-02 1.69896E-02 4.43339E-03
 -1       779 4.19553E-01-3.99780E+00 2.31094E-01 2.04289E-02-1.00663E-01 2.82620E-03
 -1       780-1.65305E-03-8.20826E-01-1.24338E-02 2.89768E-02 6.82071E-03-4.23080E-03
 -1       781-1.97946E-03-8.65617E-01 4.99119E-04 1.67289E-02 7.66363E-03 1.33554E-04
 -1       782 4.58535E-02-2.38231E+00 1.30135E-01 6.66395E-02-3.78832E-02 1.16850E-02
 -1       783-5.68725E-01-4.39947E-02-2.76771E-02-4.86803E-01 6.76736E-03 6.84923E-03
 -1       784-6.23970E-01 2.97511E-02-2.93129E-02-4.15887E-01-1.18804E-02-1.56016E-02
 -1       785 5.63095E-01 1.62995E-02 3.31269E-02-4.59035E-01 9.85018E-05 1.49769E-02
 -1       786-6.21365E-01-4.19773E-02-4.36996E-02-5.03081E-01-3.27253E-03-2.07417E-02
 -1       787-6.35357E-01-3.05562E-02-1.56718E-02-5.47383E-01 1.98473E-02 1.05767E-02
 -1       788-5.62430E-01-1.86087E-02-2.55956E-02-5.19922E-01 5.12093E-03 1.93987E-02
 -1       789-6.69022E-01-1.34870E-01-2.77557E-02-6.16492E-01-7.42753E-03 5.94716E-03
 -1       790-5.00783E-01-4.90856E-02-2.62967E-02-5.61565E-01-4.28537E-03-1.08588E-02
 -1       791 2.15228E-01 6.02771E-03 3.09035E-03-5.19713E-01 5.64843E-03 4.27427E-03
 -1       792-1.00838E-01 1.70731E-03-3.90539E-03-5.09690E-01-2.74414E-03 4.03371E-03
 -1       793 6.88842E-01-1.49737E-02 3.61262E-03-5.28294E-01 6.02514E-03-2.63422E-03
 -1       794 4.75470E-01 1.90885E-02 5.94156E-03-5.37349E-01-4.61483E-03-6.46597E-04
 -1       795 7.09200E-01-9.99877E-04 3.50768E-02-4.55568E-01-5.00551E-03 1.51498E-02
 -1       796-3.30847E-01-1.66392E-03-5.45067E-03-5.22599E-01 4.39163E-03 4.61901E-03
 -1       797 8.43549E-01 4.64236E-02 3.53504E-02-5.49180E-01-5.27801E-03-1.06614E-02
 -1       798 3.00525E-02 1.49039E+00-2.12187E-02-9.14809E-02-2.69112E-02 7.57695E-04
 -1       799-1.15528E-02 5.07725E-01 1.50660E-02-2.47556E-02-1.22919E-02-7.91129E-03
 -1       800-2.23314E-02 5.45254E-01 2.91654E-02-2.71464E-02 3.84182E-03-6.36934E-03
 -1       801-3.72051E-02 4.96363E-01 3.22422E-02-6.70094E-02 6.50880E-03 1.23722E-02
 -1       802 9.80029E-02 7.20297E-01 2.87714E-02 6.24642E-02-1.59779E-03 1.69025E-02
 -1       803 1.76371E-02 8.68377E-01 6.99087E-03 5.26661E-02-1.61318E-02-8.26420E-03
 -1       804-4.73223E-03 9.49083E-01 4.88606E-03 2.64686E-02 7.38007E-03 1.38180E-02
 -1       805 1.44508E-02 1.45233E+00-2.29551E-02-8.43356E-02 3.78600E-02-9.60255E-03
 -1       806-2.26596E-02 9.67676E-01-2.22017E-02 2.45116E-02 9.05887E-04-6.19322E-04
 -1       807-2.54891E-02 9.84047E-01-1.62071E-02 2.74357E-02-8.19261E-03-1.20990E-03
 -1       808 3.39327E-02 1.54790E+00-1.28769E-02-1.19664E-01 5.50027E-03-3.88748E-03
 -1       809-1.61756E-02 1.06976E+00-3.22152E-02 6.31033E-03-9.54476E-03 9.61156E-04
 -1       810 3.99483E-01-3.52527E-02 8.40831E-03-4.92077E-01 2.69707E-03-5.70668E-04
 -1       811 3.55439E-01-1.36654E-02 1.14668E-02-4.41229E-01-1.00659E-02-4.38498E-03
 -1       812 1.43535E-01-1.18488E-01 3.95439E-06-2.95371E-01 1.38427E-02 2.70773E-03
 -1       813-2.57415E-01 6.03403E-01-8.30460E-05 2.24165E-02 1.87636E-03-9.68165E-04
 -1       814-2.39229E-01 5.66025E-01-7.41767E-04 1.50121E-01-1.85640E-03 1.77143E-03
 -1       815-1.72924E-01 4.76988E-01 3.89118E-04 3.19323E-02 1.35184E-03 9.89413E-05
 -1       816-1.47224E-01 4.38180E-01-1.02134E-03 1.46585E-01-2.04563E-03 1.58997E-03
 -1       817 1.66560E-01-9.47044E-02 2.45406E-03-5.08991E-01 4.47758E-04 6.10196E-03
 -1       818-1.58837E-02 1.87782E-01-2.13027E-03 9.53558E-02-1.38415E-03 1.50189E-03
 -1       819-8.25154E-02 3.35780E-01 6.62140E-04 1.55768E-01 1.82856E-03-1.74841E-03
 -1       820-6.80253E-02 3.57098E-01-1.23948E-03 1.99471E-01-1.69607E-03-3.82057E-03
 -1       821-7.13542E-02 2.81449E-01 1.02168E-03 9.50717E-02-1.15559E-03-8.80489E-04
 -1       822-1.78768E-02 1.69094E-01 5.99006E-05-5.75992E-02 4.14917E-04 2.31949E-04
 -1       823-1.06739E-02 6.69811E-02-9.90332E-04-2.75160E-02-3.33390E-04-5.93977E-04
 -1       824-7.60759E-03 5.57471E-02-3.01848E-04-2.91239E-02 7.73545E-05 1.61252E-04
 -1       825 6.94264E-03 5.08656E-02-1.01898E-04-4.09505E-02-1.22605E-04-1.07792E-03
 -1       826 8.90111E-02 6.25433E-01-1.16217E-03-2.97360E-01 1.18512E-03 6.61960E-04
 -1       827 2.27679E-01 7.53576E-01 2.89786E-03-2.86805E-01-2.32765E-04 1.42792E-03
 -1       828 3.56106E-02 7.06390E-01-3.23764E-03-2.28775E-01 3.15221E-03 2.46714E-03
 -1       829 1.11469E-01 4.79449E-01-8.34109E-03-3.91947E-01-2.45646E-03-1.41662E-03
 -1       830-3.76393E-02 4.81553E-01-2.30287E-03-3.33965E-01-2.58889E-03-3.24213E-03
 -1       831 7.85278E-02 5.79832E-01 3.77356E-03-3.09938E-01-1.25611E-03-4.80543E-03
 -1       832-7.32191E-01 1.02106E+00 3.09058E-03 3.80266E-01 3.52218E-03-1.14242E-03
 -1       833-6.04847E-01 1.17287E+00-7.23312E-03 6.29971E-01-2.56944E-03-3.41036E-03
 -1       834-9.60185E-01 1.16614E+00-4.43590E-04 3.58045E-01-2.23921E-03 1.74673E-03
 -1       835 1.01561E-01 2.67841E-02 5.66275E-03 5.93612E-02 1.71796E-04-4.09573E-05
 -1       836-1.11928E-03 3.08796E-01 1.77140E-03 2.69563E-01-2.85293E-03-1.48314E-03
 -1       837 5.32188E-02 2.74145E-01 2.13885E-03 3.02703E-01-5.35837E-04-1.26005E-03
 -1       838 1.53450E-02 3.64173E-01 1.73437E-03 3.60365E-01-8.41308E-05 1.70632E-03
 -1       839 6.11851E-02 2.14891E-01 3.60233E-03 2.28586E-01 8.58262E-06 4.04613E-03
 -1       840 1.59750E-02 2.99914E-01 3.70525E-03 2.80836E-01-1.82070E-03 4.32526E-03
 -1       841 7.64779E-02 2.66997E-01 2.69852E-03 3.15264E-01-3.51732E-04 3.61034E-03
 -1       842-5.56912E-01 8.89683E-01 3.62050E-03 3.66197E-01-1.12761E-03-1.66248E-03
 -1       843-7.31415E-01 8.61673E-01-2.10908E-04 1.16851E-01-1.46468E-03 2.25938E-03
 -1       844 1.00302E-01-1.37154E-01 5.12033E-03 4.11590E-02 1.30655E-02 5.18611E-03
 -1       845 4.52019E-02-2.08378E-01-1.78567E-03-3.42532E-02 6.35052E-03-4.92342E-03
 -1       846-1.46547E-01 4.40638E-01 2.16356E-03 1.89323E-01-2.53230E-03 1.68482E-03
 -1       847-1.24909E-01 4.48053E-01-3.18794E-03 2.28627E-01-8.88013E-03-6.53542E-03
 -1       848-5.99679E-02 3.52298E-01 4.73341E-03 2.36213E-01-6.25089E-04-2.89955E-03
 -1       849-3.26946E-02 3.49309E-01 3.10126E-03 2.70623E-01-3.12087E-04-2.20961E-03
 -1       850-1.04475E-01 4.59533E-01-2.86169E-04 3.15738E-01-1.34822E-03-2.85908E-03
 -1       851 4.01178E-01-3.94883E-02 4.55611E-03-5.64332E-01 2.64161E-03-5.40497E-04
 -1       852 2.02683E-01-6.48688E-02 8.61993E-04-6.17003E-01 5.25885E-03 2.60059E-03
 -1       853 9.77824E-02 7.47175E-01-4.58860E-04-2.29607E-01-4.15639E-03-6.11840E-04
 -1       854 1.32388E-02 5.11534E-01-4.86139E-04-3.30046E-01 6.03000E-03-6.31437E-04
 -1       855 1.36487E-01 6.19888E-01-5.06403E-04-3.10280E-01 1.12163E-03 1.24897E-03
 -1       856-2.09182E-02 7.55014E-01-1.51084E-02-1.82143E-01-8.29392E-04 2.50353E-05
 -1       857-7.70233E-02 5.76017E-01 2.19974E-03-2.85840E-01 3.13672E-03-1.48989E-03
 -1       858-7.23229E-02 6.89531E-01 7.51395E-04-1.97303E-01 3.83622E-04 1.61143E-03
 -1       859-3.42120E-01-2.32084E-01-5.79869E-03-5.12755E-02 3.49794E-03-1.26005E-02
 -1       860-6.69911E-02-1.91921E-01 5.87971E-03-2.68242E-02-3.23496E-03-2.48969E-03
 -1       861-5.15327E-01-3.86265E-01-7.63672E-02-2.35229E-01 4.45036E-04-6.09510E-03
 -1       862-6.11868E-01-4.78578E-01-2.19478E-02-3.08949E-01 4.35387E-03-1.84657E-02
 -1       863-3.58592E-01-3.28559E-01-5.28469E-02-2.36568E-01 6.43529E-03 2.77617E-02
 -1       864-2.75298E-01 2.29157E-01 4.76396E-04-5.17424E-01-2.25993E-03-1.93184E-03
 -1       865-2.45990E-01 4.35380E-01 3.63932E-04-3.53492E-01-1.99998E-03 2.69828E-04
 -1       866-5.83344E-01 4.03799E-01-8.21133E-04-4.15376E-01-3.23681E-03-7.87456E-04
 -1       867-5.33811E-01 6.02526E-01 4.32136E-04-2.38878E-01-1.26260E-03-1.98705E-03
 -1       868-1.13638E+00 5.66288E-01 5.30786E-03-3.69704E-01 2.99676E-04 1.58494E-03
 -1       869-8.81041E-01 6.65127E-01-2.47577E-03-2.32713E-01 3.81772E-04 4.37627E-03
 -1       870-1.17554E+00 9.41727E-01 7.15726E-04-1.49522E-02 4.21689E-03-4.64171E-03
 -1       871 4.19272E-03 1.88092E-01-2.12355E-03 1.33009E-01 5.85013E-04 3.49015E-03
 -1       872-2.28715E-02 1.64815E-01 2.13021E-03 5.15029E-03 2.67104E-04-1.38512E-03
 -1       873-3.64372E-02 1.79887E-01-4.71924E-05-2.20095E-02-5.34921E-04 5.76933E-04
 -1       874-1.63585E-02 8.96746E-02-4.90898E-04-1.16484E-02-2.28258E-04 3.29721E-04
 -1       875 2.61346E-01 4.71501E-01 3.80664E-03-4.85154E-01 4.10282E-04 4.54527E-03
 -1       876 2.63678E-01 5.43405E-01 9.34011E-04-4.55317E-01 1.48733E-03-1.85970E-03
 -1       877 2.77607E-01 6.50235E-01-2.49025E-03-4.80445E-01-1.75478E-03 7.58338E-03
 -1       878 2.39400E-01 5.30988E-01-2.21591E-03-4.05944E-01-2.99836E-03 3.66452E-03
 -1       879 3.05253E-01 6.20157E-01-3.57784E-03-4.42936E-01-2.47421E-03 2.01930E-03
 -1       880 3.24836E-01 7.31369E-01 2.07885E-03-4.31883E-01-2.24671E-03 3.25213E-03
 -1       881 7.12210E-02-1.35809E-01-4.74127E-03-6.66697E-01-8.54594E-04 3.79092E-04
 -1       882-4.03196E-02-2.04973E-01-1.84359E-03-6.74962E-01-4.20865E-03-7.23943E-04
 -1       883 6.37608E-02-1.50578E-01-1.17191E-03-6.13354E-01 4.92077E-03-1.86209E-03
 -1       884 2.87606E-02 2.33826E-01-6.98896E-04 2.17818E-01-1.78887E-03-1.15923E-03
 -1       885 2.25398E-02 2.98003E-01 1.42934E-03 2.91163E-01-6.68650E-04-1.46389E-03
 -1       886-9.83909E-02 4.19307E-01-2.89369E-03 2.75288E-01-2.71909E-03-4.19460E-03
 -1       887 2.99814E-02 1.67623E-02 1.95333E-03 3.56303E-02 9.86092E-04-4.97879E-04
 -1       888 1.84277E-01 7.40287E-02 9.19817E-04 1.96086E-01-1.44130E-04-7.65979E-04
 -1       889 2.14137E-01 2.94508E-02 2.63687E-04 1.29803E-01-1.65491E-03 7.05040E-04
 -1       890-1.24016E+00 1.32525E-01 5.48774E-03-7.41195E-01-4.92791E-03-6.00444E-03
 -1       891-9.74957E-01 3.21677E-01 4.73230E-03-5.56354E-01-2.90556E-04-4.57297E-03
 -1       892 1.71366E-01 4.98612E-01 2.35759E-03-3.91600E-01-1.89582E-03-4.66072E-03
 -1       893 2.99031E-01 7.44115E-01-1.01957E-02-3.31973E-01 2.25256E-03-1.09321E-02
 -1       894-8.59307E-01 8.34058E-01-1.14296E-03-4.36548E-02-3.89464E-03 2.71063E-03
 -1       895-7.69551E-02 9.02230E-01 6.19493E-03-2.01687E-01 7.12578E-04 1.40792E-03
 -1       896-7.74305E-02 8.30613E-01-1.59869E-03-1.54569E-01-6.46498E-03-2.10722E-03
 -1       897 5.17940E-02 9.86520E-01 7.51138E-04-2.40167E-01-6.46800E-03 7.14277E-03
 -1       898 1.50285E-01 8.75247E-01 1.30042E-03-2.17252E-01 1.19252E-03 3.57519E-04
 -1       899 8.59217E-02 9.36747E-01-5.64737E-03-1.78890E-01-4.89232E-03 2.47506E-03
 -1       900 6.89621E-02 3.92838E-01 1.30505E-03-4.19396E-01 1.31876E-03-7.24976E-03
 -1       901-9.67294E-01 1.10316E+00-6.22885E-03 1.50674E-01-8.13079E-03-3.62006E-03
 -1       902-6.21385E-01 1.58681E+00-1.38712E-02 6.24128E-01 2.86774E-03 8.37064E-03
 -1       903-1.10268E+00 1.24067E+00-1.51481E-02 2.28961E-01 2.57524E-03 6.27817E-03
 -1       904 9.64798E-02 8.52339E-01-8.17773E-03-3.83719E-01 4.47377E-04-2.00146E-02
 -1       905 5.07354E-02 9.90243E-01 5.22339E-04-2.34257E-01 7.76441E-03-4.82049E-03
 -1       906-1.15623E-01 8.29735E-01-5.02403E-03-2.55702E-01 6.41138E-03-9.25318E-03
 -1       907 1.05740E-01 2.46640E-01 4.26876E-03 3.08648E-01 6.70196E-03 7.11650E-03
 -1       908 4.81573E-02 3.46114E-01-1.04203E-02 4.11070E-01 1.16785E-03 2.57083E-03
 -1       909 2.68612E-01-9.52581E-03-2.54642E-03-5.88025E-01-1.78072E-03 1.67506E-03
 -1       910 7.60190E-02 4.24072E-01-9.66318E-04 4.85264E-01-2.16760E-03 4.67089E-03
 -1       911-1.14903E-01 5.27389E-01-9.21810E-03 4.18404E-01-2.49574E-03-5.78537E-03
 -1       912-3.09468E-01 7.10823E-01-3.40167E-03 4.46625E-01 3.72063E-04-9.88065E-03
 -1       913-2.58487E-01 6.54950E-01-3.00149E-04 4.01721E-01-8.73498E-04-2.01947E-02
 -1       914-2.43021E-02 2.18162E-01 3.67733E-04-8.17870E-02 1.51227E-03 1.13869E-03
 -1       915-3.44333E-02 2.99662E-01 1.62485E-03-1.25341E-01-8.78709E-04 6.69424E-04
 -1       916 9.36559E-03 1.78130E-01-2.98467E-04-1.07080E-01 1.52461E-03 2.39751E-04
 -1       917-9.65629E-02 2.99857E-01-2.27986E-03 3.27555E-02 4.34590E-04 2.25780E-04
 -1       918-7.43388E-01 5.46755E-01-4.74291E-04-3.37330E-01-2.90489E-04-5.67511E-03
 -1       919 9.09708E-02 4.64859E-02 8.78793E-04 9.87410E-02-2.84766E-04-2.05870E-03
 -1       920 3.24940E-03 9.00291E-03 2.49238E-04-5.72632E-03-6.30418E-04 7.53066E-04
 -1       921 5.09238E-04 2.51750E-02 1.62968E-04-2.66378E-03 2.83886E-05-2.79888E-04
 -1       922 2.12630E-01 4.19565E-01-2.54639E-03-4.68096E-01-5.65421E-03-7.68097E-05
 -1       923 1.63350E-01 4.22861E-01-6.04381E-04-4.73461E-01-2.08693E-03 2.25946E-04
 -1       924-3.72476E-02-7.17388E-01-5.39792E-04-3.18863E-01-1.60356E-03 3.15487E-04
 -1       925-1.12721E-02-1.00018E+00-2.19900E-03-1.33573E-01 3.37375E-03 4.74215E-04
 -1       926-5.39886E-03-8.05866E-01 3.39405E-04-1.21453E-01 1.23346E-03 4.17784E-04
 -1       927-7.91418E-02-9.62638E-01-1.94633E-03-3.97122E-01-2.71097E-03 5.43699E-03
 -1       928-2.47633E-02-1.25827E+00-2.74414E-03-1.99613E-01 2.60589E-03 7.80697E-03
 -1       929-3.99560E-02 5.15222E-01-4.05446E-03-2.38602E-01-2.01995E-03 4.92684E-03
 -1       930-1.51104E-01 6.04497E-01 1.22593E-04-1.96171E-01-6.47879E-04 1.05814E-03
 -1       931-6.42242E-02 7.19896E-01-5.93192E-03-2.68381E-01 2.48420E-03 1.44622E-03
 -1       932-2.06395E-02 4.88531E-01 4.12444E-03-2.54790E-01-3.71376E-03 5.70595E-03
 -1       933 1.01990E-01 6.56051E-01 9.11679E-03-3.65901E-01-6.32716E-03 1.28335E-02
 -1       934-5.44560E-02 7.00304E-01 3.04378E-03-2.77958E-01-8.81402E-03 8.05186E-03
 -1       935 5.66975E-03 1.79147E-01-1.23138E-03 1.24560E-01-3.72952E-04 4.16536E-04
 -1       936-2.65070E-03 1.26818E-01 8.50013E-06 3.92993E-02 8.07377E-04 5.44883E-04
 -1       937 1.09855E-02 1.33448E-01 1.48771E-04 7.34113E-02 1.43941E-03 1.15992E-03
 -1       938-7.36290E-01-7.79839E-01 2.52041E-03-9.54745E-01-4.37917E-03-2.39602E-03
 -1       939-3.10105E-01-1.40915E+00-6.93381E-03-7.42388E-01-1.30672E-02-5.05859E-03
 -1       940-4.59705E-01-6.87506E-01 1.26581E-02-7.36751E-01-2.33728E-03-7.40468E-03
 -1       941-1.27007E-01-1.22448E+00-3.26396E-03-5.25471E-01-1.10017E-02 4.62528E-03
 -1       942 2.30804E-02 2.06213E-02-7.43371E-04-1.66155E-02 2.03990E-03-3.08937E-03
 -1       943-7.85405E-04 1.33990E-02 9.32382E-04-1.05138E-03-2.06052E-04-6.49576E-04
 -1       944 3.51885E-02 1.71788E-02-5.24063E-03-3.42981E-02 3.43431E-03-1.70494E-03
 -1       945 4.55368E-02 2.99712E-02 3.58056E-04-2.97452E-02 1.71554E-03-3.63625E-04
 -1       946 8.59230E-02 5.10283E-02 1.39559E-04-7.50232E-02 2.36423E-03-1.95838E-03
 -1       947 6.32013E-02 3.35077E-02-1.16575E-04-5.23631E-02 4.65198E-03-1.26080E-03
 -1       948-1.94177E-01 2.56372E-01 3.92122E-03-2.89723E-01-3.93661E-03-2.26423E-03
 -1       949 3.89913E-02 5.57791E-01 3.96251E-03-1.88580E-01 1.27678E-02 1.42723E-02
 -1       950 1.37359E-02 1.12865E-02 1.54176E-03-3.17986E-03-8.00595E-04-2.56165E-03
 -1       951-2.04388E-01 8.34271E-01 4.51909E-03-1.43331E-01 4.72037E-03 1.14228E-03
 -1       952-2.32066E-01 8.34653E-01 3.87369E-03-1.19461E-01-5.49795E-03 1.18672E-03
 -1       953-2.43753E-01 8.16521E-01 5.07590E-04-1.44378E-01-1.27314E-04-2.02052E-03
 -1       954-1.47239E-01 8.70772E-01-2.85959E-03-2.17920E-01-5.07121E-03 5.74737E-03
 -1       955 1.47695E-01 2.14375E-01 1.14965E-02-2.23558E-01 5.86313E-03 2.82644E-03
 -1       956 2.74539E-01 2.11453E-01 1.22017E-03-2.61002E-01 8.99550E-03 1.52409E-02
 -1       957 2.76535E-01 1.56380E-01-2.27553E-02-2.57404E-01-3.92712E-03 1.23202E-02
 -1       958 2.07498E-01 5.22554E-02-1.58247E-03-1.17646E-01-5.67192E-04 1.00510E-02
 -1       959 1.45285E-01 1.99400E-02-3.46549E-02-7.56843E-02 1.37613E-02 2.19608E-03
 -1       960-4.02393E+00-4.38182E+00-7.29111E-01-3.22678E+00-1.27531E-01-1.06811E-01
 -1       961-9.77178E-01 1.64394E-01 2.18350E-03-3.00479E-02-2.88849E-03 3.09617E-03
 -1       962-6.21020E-01-3.05296E-01-7.24770E-03-8.64186E-02 5.47260E-03-4.07812E-03
 -1       963-1.50333E+00-5.69204E-01 3.60145E-02-1.65256E-01 1.60618E-02 2.32869E-02
 -1       964-1.32821E-01 6.65743E-01 1.83469E-03-2.09737E-01 1.85364E-03-1.20914E-03
 -1       965-3.21430E-02 2.40262E-01 5.74642E-04-7.32515E-02-4.85970E-04-7.90404E-04
 -1       966-6.00307E-02 2.60837E-01-4.67810E-04-4.81619E-02-9.03094E-04 6.41549E-04
 -1       967-1.08737E-01 4.14794E-01-7.41942E-04-1.03027E-01 1.17861E-03-4.14320E-04
 -1       968-1.40331E-01 4.38019E-01-7.31690E-04-6.68162E-02-2.68956E-04 2.09354E-03
 -1       969-7.13974E-01-2.15098E-01 7.85736E-04-7.84833E-01-5.98260E-03-3.37103E-03
 -1       970 4.85859E-02-2.55918E-01 1.55571E-03-2.93324E-01 1.33593E-03 3.32166E-04
 -1       971-1.87714E-03-4.71269E-01-4.56652E-03-1.19685E-01 2.93204E-03-6.99431E-03
 -1       972-1.30509E-02-6.12298E-01 1.02017E-03-1.09650E-01-1.27334E-03-6.60763E-04
 -1       973 1.89956E-02-3.90196E-01-1.64025E-02-1.22426E-01 4.65044E-03-5.94861E-03
 -1       974 6.33972E-02 1.74424E-02 4.96518E-03-3.81609E-02 1.68920E-03-4.77981E-03
 -1       975 1.20563E-01 1.17382E-01 2.69996E-03-1.49086E-01 4.53110E-03-4.21472E-03
 -1       976-4.10927E+00-1.73764E+00-3.96497E-01-1.44065E+00 1.23579E-02 8.13929E-02
 -1       977 2.39132E-01 2.61754E-02-3.23370E-02-1.62031E-01-4.23896E-03-6.25329E-03
 -1       978 6.24650E-02 3.05087E-02 4.95615E-03-5.50071E-02-2.39912E-03 4.63427E-03
 -1       979 2.68692E-01 1.04346E-01-2.38780E-03-1.97255E-01-8.36607E-03-2.19399E-02
 -1       980 1.81201E-01 1.41886E+00 1.70692E-03-3.69841E-01 1.35782E-02-4.58829E-03
 -1       981 2.67078E-01 1.28484E+00-1.70740E-02-4.25127E-01-5.93194E-03 6.34072E-03
 -1       982 1.26587E-01 1.19228E+00-7.09941E-03-3.30057E-01-3.39527E-03 2.35465E-03
 -1       983 2.79871E-01 9.47771E-01-1.95424E-03-4.57485E-01-4.10603E-03 6.19678E-03
 -1       984 1.65926E-01 8.02068E-01-4.25235E-03-4.19125E-01 2.92179E-04-9.09107E-03
 -1       985 2.27498E-01 7.61906E-01 1.06610E-02-4.41594E-01 2.85484E-03-2.66338E-03
 -1       986 1.42466E-01-2.66920E-02-3.52249E-04-7.10766E-01 6.44646E-04 9.85026E-04
 -1       987-6.13913E-02 4.43886E-01 4.17071E-03-1.74827E-01-3.48275E-04-7.46498E-04
 -1       988-8.87467E-02 5.20087E-01 1.40128E-03-2.08850E-01 1.91974E-03-8.28769E-03
 -1       989-1.98544E-01 5.72613E-01-3.46240E-03-9.50790E-02 1.36999E-04-3.14620E-04
 -1       990-6.16785E-03 3.34540E-01 3.61024E-03-1.93089E-01 2.40375E-03-8.42252E-04
 -1       991-4.45415E-01 6.51940E-01 1.56532E-03-2.06331E-01 1.78413E-03 4.84152E-04
 -1       992-2.85343E-01 7.78062E-01-1.45588E-03-1.13325E-01 2.18776E-03-4.55066E-04
 -1       993 3.57110E-01 3.40535E-01-4.41045E-02-3.35568E-01-3.12611E-03 6.88545E-03
 -1       994 1.09810E-01 5.54081E-01-5.26644E-03-3.91766E-01-2.01705E-04 7.00364E-03
 -1       995-3.13734E-01 8.53840E-01 5.85943E-03-8.18803E-02-3.24157E-03 2.70656E-03
 -1       996-5.49405E-01 4.81008E-01 5.83508E-03-3.15367E-04 4.96051E-04 4.71605E-03
 -1       997 1.62216E-01 6.30458E-01-1.66574E-02 5.70452E-03-2.59280E-02-9.66062E-03
 -1       998-2.42341E-01-5.16402E-02-5.20216E-03-3.69037E-02 5.06118E-03 4.78879E-03
 -1       999-1.47397E+00 8.16245E-01 7.79771E-03-2.03813E-01 2.40751E-03 2.24949E-03
 -1      1000-1.25216E+00 1.10151E+00-4.77764E-03 1.38990E-01 1.28188E-03-2.28428E-03
 -1      1001 2.06597E-01 3.40695E-01-1.01483E-03-5.64886E-01 1.33146E-03 5.70217E-04
 -1      1002 2.02644E-01 3.02985E-01-3.98798E-03-6.02747E-01 1.94312E-04 3.84078E-06
 -1      1003 1.62667E-01 2.07251E-01 4.75905E-03-6.56324E-01 3.59962E-03-5.12755E-05
 -1      1004 1.44783E-01 3.13544E-01 2.98249E-03-5.39741E-01 2.74071E-04 3.93389E-03
 -1      1005 1.19439E-01 2.85705E-01-2.02873E-04-5.64916E-01-1.98348E-03-1.00440E-04
 -1      1006 3.95105E-03 2.23878E-03 5.21271E-04-1.32257E-02-2.40906E-05-3.09806E-04
 -1      1007 6.82878E-03 2.33695E-02-2.52363E-04-1.04267E-03-3.18231E-04 8.20052E-04
 -1      1008 2.87302E-01 7.44427E-01-1.45908E-02-3.25093E-01-1.93154E-03 1.09720E-02
 -1      1009 3.20168E-01 8.59687E-01-9.07006E-03-2.30414E-01-1.35261E-02 2.52182E-02
 -1      1010 9.85193E-02 2.63728E-01 3.62549E-03-2.54432E-01 8.30664E-03-3.78472E-03
 -1      1011 2.60740E-01 7.38042E-01 1.74013E-03-4.89934E-01 4.52950E-03 4.37430E-03
 -1      1012 1.74151E-01 8.23204E-01-2.77051E-03-4.64046E-01-4.54693E-03 1.26628E-02
 -1      1013 1.88093E-01 5.52654E-01 1.43572E-03-4.76469E-01 5.95357E-03-4.09851E-04
 -1      1014 2.36320E-01 5.60406E-01-2.73944E-03-5.09834E-01 1.03545E-02-2.29825E-03
 -1      1015 1.36718E-01 6.47902E-01-3.52895E-03-4.40190E-01-3.54669E-04-3.92270E-03
 -1      1016-8.17556E-02 8.37798E-01-1.61718E-03-1.54806E-01 6.01684E-03 1.45212E-03
 -1      1017 3.52819E-03 2.10225E-01-7.62207E-05-1.20147E-01-7.39589E-04 3.17108E-04
 -1      1018 2.02789E-02 6.94079E-02-9.29647E-04 4.12499E-02-4.63860E-05 5.25059E-04
 -1      1019 5.45069E-02 9.35744E-02 5.99709E-04 9.60800E-02 4.69729E-04-2.60045E-05
 -1      1020-5.54600E-01 6.63978E-01-3.63493E-03-1.74410E-01 1.33684E-03-1.63210E-03
 -1      1021-2.92791E-01 7.41186E-01 4.60270E-04-1.36318E-01 4.94095E-03 3.66404E-04
 -1      1022-2.54603E-01 6.77680E-01 1.58658E-03-1.87917E-01 2.12596E-03-7.96822E-04
 -1      1023-3.78191E-01 7.62233E-01-4.60358E-03-9.12106E-02 2.81104E-03 7.82769E-04
 -1      1024 7.61420E-02 2.16198E-01 5.46332E-04-1.86078E-01-3.65448E-03 7.77463E-04
 -1      1025-6.31111E-03 4.25177E-01-4.92315E-04-2.27477E-01 2.07584E-03-5.12466E-03
 -1      1026 5.56780E-02 3.03385E-01 2.99664E-03-2.45142E-01-1.90770E-03 3.73956E-03
 -1      1027 5.54787E-01 1.15024E+00 1.39173E-01 2.75705E-01 7.98955E-02-8.79081E-03
 -1      1028 3.73269E-01 6.32841E-01 3.52900E-02 1.50145E-01-8.75574E-03-1.08385E-02
 -1      1029-1.30708E-01-2.74297E-01-3.23347E-02-1.57213E-01 2.86014E-03-2.39724E-02
 -1      1030 1.14174E-01 1.05412E-01 1.99754E-04 1.71845E-01 1.54824E-03 1.12073E-03
 -1      1031 2.17842E-01 1.55776E-01 7.51764E-03 2.92473E-01-1.04842E-04 3.17516E-03
 -1      1032 1.10594E-01 1.11388E-01 2.08538E-03 1.75072E-01 8.37769E-04-5.16519E-04
 -1      1033 4.40622E-02 2.90374E-01-6.66068E-03-2.15037E-01-2.07707E-04 3.57817E-03
 -1      1034 6.20173E-02 1.69049E-01 2.76227E-03-1.36235E-01 1.79717E-03-3.80599E-03
 -1      1035 5.18489E-02 2.20681E-01-4.65674E-04-1.70198E-01 2.15392E-03 2.36645E-03
 -1      1036 7.02083E-01 1.58000E-02-1.14557E-02 2.09932E-01 1.55876E-03 1.27921E-04
 -1      1037 1.68020E+00 2.31532E-01-2.17057E-02 8.04316E-01-2.55093E-02-4.14636E-02
 -1      1038 1.33931E+00 4.69388E-02-6.66584E-02 3.55572E-01-2.36484E-02 2.51936E-02
 -1      1039 7.97366E-01 3.28630E-01 8.98551E-03 7.60569E-01 3.61572E-04-4.94667E-03
 -1      1040 2.16407E-01 3.42147E-01 3.93263E-02 1.20855E-01-5.79880E-03 2.25859E-02
 -1      1041 7.87836E-02 3.96876E-02-5.53497E-04-7.12313E-01-9.56040E-04 4.24295E-04
 -1      1042 7.19280E-02 1.46603E-01 5.47262E-03-6.64955E-01-2.46236E-03-5.20667E-04
 -1      1043-2.42426E+00-7.72356E-01 1.57983E-02-2.65583E-01 1.83537E-02 6.12887E-02
 -1      1044-2.12368E+00-1.15381E+00-2.36170E-01-6.38816E-01 2.83455E-02-1.08915E-01
 -1      1045-3.93287E+00-1.72690E+00-4.75096E-01-1.22370E+00 5.57239E-03 4.18055E-03
 -1      1046-1.79538E-02 4.10822E-01-5.57262E-03 3.67628E-01-1.87270E-03 3.28360E-04
 -1      1047-4.09462E-02 4.16571E-01 2.54978E-03 3.29992E-01-3.87275E-04 2.90026E-03
 -1      1048-4.69052E-02 4.17418E-01 1.89053E-03-1.88653E-01-5.03047E-04-1.39615E-04
 -1      1049-1.19701E-01 4.56740E-01-1.87964E-03-1.35545E-01-9.82817E-04 1.56990E-03
 -1      1050 3.33749E-01 6.83052E-01-3.30214E-03-4.24096E-01 1.29197E-02-1.72773E-02
 -1      1051 1.40516E-01 2.66057E-01 7.55145E-04-2.85706E-01-7.65222E-03 2.80673E-03
 -1      1052 1.47143E-01 1.00917E-01 1.01295E-04-1.46026E-01 3.82115E-03-3.56003E-03
 -1      1053 1.80451E-03 5.77495E-03 1.38060E-03-8.79679E-03-9.06383E-04 3.45514E-04
 -1      1054-3.40134E-01 6.85514E-01 8.88313E-04 8.77658E-02 1.55429E-03 4.03125E-03
 -1      1055-4.12811E-01 7.57857E-01 1.46538E-03 2.40587E-01 1.29494E-03 4.18593E-03
 -1      1056-2.78088E-01 6.25160E-01 2.62693E-03 2.99266E-01 1.92267E-03 4.01807E-03
 -1      1057 8.21141E-02 8.53188E-01-8.43020E-03-3.73707E-01-5.48108E-03 2.09990E-02
 -1      1058-5.63166E-02-4.41276E-01-3.06303E-03-5.11663E-01-1.93949E-03 1.57505E-03
 -1      1059-1.64509E-02-5.22909E-01-1.10382E-04-3.05524E-01-1.29963E-03-2.61581E-03
 -1      1060 2.56982E+00 3.88227E+00 6.17796E-01 2.57545E+00-8.49721E-02-5.31774E-02
 -1      1061-2.42502E-02 6.43632E-02 5.93618E-03-6.75049E-01-4.19555E-03 2.93976E-03
 -1      1062 1.05353E-02 8.31642E-03 7.47160E-04-7.21658E-01 1.03139E-03 2.58409E-03
 -1      1063 3.53867E-01 3.19922E-01-4.29643E-02-3.29374E-01 5.05807E-03-1.17988E-02
 -1      1064 1.59954E-01 4.11647E-01-1.42124E-02-3.47052E-01-9.30675E-03-9.11198E-03
 -1      1065-1.98086E-01 2.97086E-01-8.44569E-04-4.74695E-01-5.63851E-04-2.81217E-03
 -1      1066-3.00780E-03 1.92421E-01-3.16769E-03-5.60923E-01-2.25186E-03-2.16205E-03
 -1      1067 1.45216E-01 1.36500E-01 6.62879E-03-1.68732E-01-6.85165E-03 4.73041E-04
 -1      1068 6.73321E-02 1.89936E-01 1.24565E-03-1.48421E-01-4.33700E-03 2.83496E-03
 -1      1069 3.09676E-02 1.20560E-01 7.64091E-04-8.45682E-02 1.70159E-03-1.56714E-03
 -1      1070 6.57723E-02 6.20165E-02 1.33307E-03-7.19470E-02 4.35585E-04-1.92425E-03
 -1      1071 8.16028E-02 6.46255E-02-6.78173E-04-8.19154E-02-3.42127E-04 8.66988E-04
 -1      1072 2.47294E-02 8.83355E-02 9.85559E-05-5.54948E-02-4.44666E-05-1.22235E-03
 -1      1073-7.56733E-01-5.11207E-01-6.73960E-02-2.61944E-01-1.75550E-02 2.69672E-02
 -1      1074-3.64973E-02-6.67733E-02 3.16852E-03-7.11523E-01 3.70870E-03-2.96852E-03
 -1      1075 3.24146E-02-7.02487E-02-2.06886E-03-7.26879E-01-2.25753E-03-1.35031E-03
 -1      1076 4.06546E-02-1.38238E-02 4.71077E-03-7.40320E-01 2.95245E-03 2.13091E-03
 -1      1077 7.95429E-02-9.56617E-03 2.34578E-03-7.50497E-01 1.54636E-03 3.67529E-03
 -1      1078-5.42213E-01 7.96170E-01 2.44035E-03 5.39576E-02 1.09666E-03-1.10451E-03
 -1      1079-5.47965E-01 7.70200E-01-1.29570E-04-6.99883E-02 5.45101E-03 1.36904E-04
 -1      1080 2.34418E-01-2.22061E-01-4.83789E-03-2.57079E-01-8.63665E-03-4.57326E-03
 -1      1081-2.20343E-01-7.09524E-01-4.03931E-04-6.48827E-01-4.40868E-04-2.17209E-03
 -1      1082-4.42292E-01-2.91095E-01-5.31880E-03-7.15614E-01-5.43056E-03-1.71192E-03
 -1      1083 3.08394E-02 7.57673E-02 1.84135E-03-4.83951E-02 1.56124E-03 7.00482E-04
 -1      1084 4.11149E-02 1.45379E-01 3.47146E-03-1.05292E-01-5.41092E-04 1.68887E-03
 -1      1085-2.28307E-01-2.73247E-01-1.16434E-03-6.90470E-01-3.25135E-03 3.47957E-03
 -1      1086 4.31620E-01 1.00069E+00-3.06850E-03-5.21009E-01 1.77213E-02-3.65265E-03
 -1      1087 3.31607E-01 3.82671E-01-2.49689E-02-2.87921E-01-1.39927E-03 6.33363E-04
 -1      1088-1.20315E+00 8.17546E-01-2.92335E-03 3.10412E-02 5.57765E-03-4.22629E-03
 -1      1089 1.29229E-02 7.73246E-03 3.72815E-03-7.85638E-03-2.27783E-04-1.63230E-04
 -1      1090 1.49983E-02-4.63571E-03 1.44167E-03-1.07721E-02-8.52305E-04 2.54999E-03
 -1      1091 1.65683E-02-5.87070E-03 9.03444E-04-1.57846E-02 1.59459E-05 4.09911E-04
 -1      1092 8.71735E-02 2.02642E-01 1.07963E-03 2.48281E-01-2.08161E-03 2.39110E-03
 -1      1093 5.03094E-02 1.41131E-01-1.49561E-03 1.58073E-01-1.18730E-03 5.23570E-03
 -1      1094 4.11243E-01 9.04753E-01 5.70023E-03-4.25668E-01 7.63762E-03-9.45653E-03
 -1      1095 4.28510E-01 9.65229E-01 1.33286E-02-4.50776E-01-4.78669E-03-1.70016E-02
 -1      1096-1.75656E+00 5.42133E-01 2.55222E-03-4.13912E-01-9.65255E-04-9.51237E-03
 -1      1097-2.07373E+00-2.57874E-01-1.64740E-03-9.81870E-01-3.32953E-03 1.65777E-03
 -1      1098-2.19156E+00 8.66008E-02 2.34580E-02-3.94866E-01-2.75738E-02 3.15607E-02
 -1      1099-1.49586E+00 6.90272E-01 3.04264E-03-1.33053E-01-9.13394E-04-2.62820E-03
 -1      1100-8.80425E-01 9.71750E-01-1.12145E-03 2.01589E-01-2.41580E-03-3.66070E-03
 -1      1101-3.57536E-02-1.67156E+00-9.00662E-03-2.34170E-01 4.96860E-03-6.25379E-03
 -1      1102-1.36269E-01-2.05483E+00 6.54609E-03-5.12574E-01 3.35909E-03 1.25185E-02
 -1      1103 1.46651E-01 5.42870E-01 7.52112E-03-3.44395E-01 1.25490E-02-1.58536E-02
 -1      1104-1.92294E-01 6.92467E-01-3.38262E-03-1.75629E-01 2.44081E-03 1.04731E-03
 -1      1105 1.55970E-02 6.00710E-01 2.72509E-03-3.08749E-01 8.70617E-03-8.71897E-03
 -1      1106 1.39254E-01 1.39896E+00-9.53729E-03-3.36121E-01 1.43544E-02-5.62306E-03
 -1      1107 4.09040E-01 1.38252E+00 6.69963E-03-4.18715E-01-1.09548E-02-5.97910E-03
 -1      1108 6.11263E-02 1.41213E-01-1.89229E-03 1.48537E-01-5.64831E-04 1.38482E-03
 -1      1109-1.41243E-01 3.07764E-03 2.22960E-03-6.28074E-01-8.36028E-04-1.41633E-03
 -1      1110-2.54672E-01 2.33435E-03-3.28694E-03-6.20099E-01 3.51281E-03 8.35299E-03
 -1      1111 1.28788E-01 2.96216E-01-3.93378E-03 4.06341E-01-1.46593E-03 1.93634E-03
 -1      1112-1.57529E+00-8.14081E-01-7.05410E-02-4.23442E-01 1.45135E-02 4.72620E-02
 -1      1113 1.13724E-01 4.23990E-01-9.96411E-04-4.29302E-01-4.04409E-03 3.42022E-03
 -1      1114 1.10155E-01 3.43293E-01-3.24545E-03 4.31434E-01-3.16180E-03 1.14227E-03
 -1      1115 9.00259E-02 3.54352E-01 2.85041E-03 4.16290E-01-4.46769E-03 5.60927E-04
 -1      1116 1.62154E-01 2.61369E-01 4.27328E-03 3.73502E-01-1.74207E-03 4.62918E-03
 -1      1117-1.38437E-01-9.25366E-02 1.23257E-03-6.86876E-01 3.79420E-05 1.64105E-03
 -1      1118-8.05717E-02 1.23402E-01-1.14342E-03-5.97929E-01-1.36444E-03 7.77343E-05
 -1      1119 1.52588E+00 4.28681E+00 5.60782E-01 1.43831E+00 1.54170E-01 3.82628E-02
 -1      1120 3.39063E+00 2.44890E+00 4.99189E-01 2.70165E+00-1.43728E-02 2.21290E-02
 -1      1121 1.04252E-02 1.42701E-01-5.67396E-05-7.64449E-02 5.07488E-05-2.22720E-04
 -1      1122 3.80425E-01 1.44062E+00 2.86661E-02-4.22240E-01 2.72932E-03-3.48120E-03
 -1      1123 4.07912E-01 1.12682E+00-8.61772E-03-4.40596E-01-9.09301E-03 3.32957E-04
 -1      1124 3.25913E-01 8.67595E-01-8.84291E-03-2.35927E-01 1.44175E-02-2.03621E-02
 -1      1125 1.72070E-02 8.18278E-03 1.56006E-03 2.29550E-03-4.62537E-03 6.30035E-03
 -1      1126 8.93548E-03 7.65227E-02-1.64082E-04 2.83255E-02 7.03815E-04 7.60582E-05
 -1      1127 4.31676E-01 1.00244E+00-3.27524E-03-5.22761E-01-1.79620E-02 3.44548E-03
 -1      1128 2.36631E-01 1.24017E+00-3.53563E-02 2.67551E-02-5.45045E-02 1.95173E-03
 -1      1129 1.35006E+00 1.14142E-01-3.85914E-01 6.26371E-01 1.23253E-01 1.76903E-01
 -1      1130-8.24166E-01 1.42128E+00-9.14457E-03 5.21818E-01 1.12056E-04 3.82216E-03
 -1      1131-3.78201E-01 1.49640E+00 2.82512E-03 8.76218E-01-6.33972E-04-2.58401E-03
 -1      1132-1.70775E+00 1.05692E-01 3.26984E-02-2.17333E-01-1.17457E-02 5.49674E-03
 -1      1133-1.48636E+00 3.11903E-01-1.13083E-02-6.13006E-01 2.96733E-04-7.40085E-03
 -1      1134-4.08435E-02 4.78547E-01-1.87849E-03 4.35980E-01-1.15624E-03-5.35164E-04
 -1      1135 4.17787E-01 8.56488E-01-7.84545E-03-4.19699E-01 1.76186E-03 1.11466E-02
 -1      1136-3.28814E-01-6.38686E-03 3.42251E-03-6.32740E-01 6.18159E-04-3.49257E-03
 -1      1137-2.69299E-01 6.60690E-01-4.32042E-05-3.54853E-02 3.36579E-03-2.00232E-03
 -1      1138-3.34186E-01 7.69323E-01-1.07234E-04-7.77869E-03-1.18706E-03-1.97217E-03
 -1      1139-2.19537E-01 7.23167E-01-1.23878E-03-1.51463E-01 5.66155E-04 1.75891E-03
 -1      1140 1.60708E-01 6.68687E-01 2.74350E-06-4.50636E-01 4.18956E-03 4.30382E-03
 -1      1141 1.46045E-01 4.03745E-01-2.24749E-03-5.30727E-01-6.99198E-04 4.49163E-04
 -1      1142 2.90322E-01 7.78240E-01-1.72619E-03-4.87922E-01-6.17275E-03-8.90884E-03
 -1      1143 2.27712E-01 5.06680E-01-7.22783E-03-5.22114E-01-2.05681E-03-2.31324E-03
 -1      1144-1.07463E+00-5.99778E-01 3.52988E-03-9.76733E-01-1.33119E-02 9.28473E-03
 -1      1145-1.51159E+00-3.96863E-01 1.16691E-02-1.05924E+00 8.23303E-03 8.96670E-03
 -1      1146 4.08288E-01 1.12625E+00-6.18658E-03-4.40405E-01 7.09132E-03 1.04218E-03
 -1      1147 4.30786E-01 1.41033E+00 7.70604E-03-4.22579E-01 1.77005E-02 2.53577E-03
 -1      1148-6.52994E-01-1.75842E+00-1.98226E-02-1.14885E+00-3.02179E-02 6.36585E-03
 -1      1149-2.50407E-01 6.42444E-01-1.12555E-03-5.03315E-02 1.33938E-04 1.14627E-03
 -1      1150-2.60346E+00-9.90399E-01 6.31575E-02-1.02304E+00-3.37066E-03-3.98119E-02
 -1      1151-2.13969E+00-9.91208E-01 1.56515E-01-1.61724E+00-1.93896E-03-2.79246E-02
 -1      1152-3.50421E+00-3.38901E+00-4.75875E-01-2.87482E+00 8.49558E-02 7.80885E-02
 -1      1153 8.75487E-03 3.22496E-02 4.06117E-04-3.59801E-02-4.07147E-04 5.26680E-04
 -1      1154 8.13620E-01 3.09141E+00 2.98980E-01 6.05058E-01 1.87018E-02 7.68516E-02
 -1      1155 2.63155E-01 2.15772E+00 1.32590E-03 2.74894E-01 1.46301E-02-8.69565E-03
 -1      1156 9.15359E-01 2.51388E+00 3.87020E-01 5.41722E-01 7.73882E-03 1.92066E-02
 -1      1157 1.48634E-01 6.64225E-02 4.80974E-02 9.06984E-02-1.66623E-02-4.42136E-03
 -1      1158-1.43921E+00-1.64352E+00-3.66252E-02-1.43670E+00-1.99569E-02 1.71724E-02
 -1      1159 5.14715E-02 3.54598E-02-9.94249E-04 5.43980E-02 2.33308E-04 2.92086E-04
 -1      1160 3.38954E-02 4.20157E-01 3.46850E-03 4.49465E-01-2.82070E-03-6.00514E-04
 -1      1161-6.62882E-02 4.79401E-01-1.61330E-03 4.14981E-01-7.39795E-04-4.76193E-03
 -1      1162-5.75361E-02 5.27375E-01-3.91475E-03 5.33564E-01-8.22026E-04-2.63054E-03
 -1      1163-1.58241E-01 5.13086E-01-7.41667E-03 3.33265E-01-4.12989E-04-1.63787E-03
 -1      1164-7.20946E-01 6.89477E-01 9.21804E-04-1.67343E-01-1.38957E-03-2.72672E-03
 -1      1165 1.75869E-01-1.76960E-02-7.29026E-04-6.38329E-01 3.59308E-03-3.84407E-05
 -1      1166 6.48894E-04 1.25357E-02 6.41878E-04 9.36316E-03 2.31492E-04 2.16565E-04
 -1      1167-2.33613E-04 8.97991E-03 1.23793E-03 2.79895E-03-1.48165E-04-1.22582E-03
 -1      1168 7.02177E-02 1.10079E+00-1.17167E-02-2.08947E-01 1.71285E-03-1.91664E-03
 -1      1169-6.17323E-02 3.20115E-03-1.96390E-03-6.36254E-01-7.26345E-04 2.79087E-03
 -1      1170-7.10779E-02 3.11537E-01-7.12293E-04-4.61091E-01-2.45935E-04-2.38987E-03
 -1      1171 1.97785E-02 1.66576E-02-1.79597E-03-3.28758E-02 4.64308E-04-4.38723E-03
 -1      1172-1.19283E-01-5.04834E-01 3.54656E-03-5.44573E-01 2.08161E-03 1.19400E-03
 -1      1173 5.62377E-02 8.89610E-01-1.87827E-02-2.15883E-01-1.12978E-02 7.26116E-04
 -1      1174-5.62529E-02 6.81164E-01-4.94305E-03 6.55757E-01 2.87814E-03 1.30693E-03
 -1      1175 8.97865E-02 6.14977E-01 4.63772E-03 7.05777E-01 1.00587E-02 6.49383E-03
 -1      1176 1.66297E-01 5.39672E-01 8.48574E-03 6.70023E-01 4.54631E-03 6.57844E-03
 -1      1177 3.07766E-02 4.73095E-01-3.02749E-03 5.02084E-01-5.73977E-03-3.12210E-03
 -1      1178 1.28387E-01 3.96774E-01 9.63570E-04 5.23323E-01-2.90600E-03 3.69082E-03
 -1      1179 6.27871E-02 9.25369E-01-7.73279E-03-2.39400E-01 4.85396E-03-4.66440E-03
 -1      1180-1.81548E-01-3.03151E+00 9.18945E-02-9.70850E-01 5.47381E-02-3.34740E-02
 -1      1181 2.40766E-01 2.79211E-01 1.93318E-04 4.55985E-01-3.67560E-03-3.06042E-03
 -1      1182 8.70063E-02 9.41150E-01-3.27760E-03-1.80516E-01 5.43162E-03-2.18193E-03
 -1      1183-3.73512E-03 6.50591E-03 1.25722E-03 8.00376E-04-3.96926E-04 4.23307E-04
 -1      1184 5.35114E-02-2.08896E-01-1.44911E-03-4.95039E-01 8.88620E-05-1.77158E-03
 -1      1185 1.20654E-01 2.82430E-01 1.18050E-04 3.59202E-01-2.39025E-03 5.93374E-03
 -1      1186-1.32034E-01-2.60042E-01-3.20866E-03-6.85411E-01-3.20587E-03 3.95037E-04
 -1      1187-7.56979E-01 1.58191E-01-3.61490E-04-5.98717E-01 8.93295E-04-1.04051E-04
 -1      1188-5.61355E-01 2.49929E-02 6.26208E-04-6.45715E-01 2.05168E-04-7.62447E-04
 -1      1189-5.94487E-03 6.43126E-02-4.65333E-04 3.57254E-03 5.08932E-04-3.17226E-04
 -1      1190-1.75014E-01 5.00154E-01-4.48576E-03-3.12802E-01-1.47131E-03-9.73409E-04
 -1      1191-8.97788E-03 4.47744E-03 2.80878E-04-8.98419E-03-2.09945E-04 4.16390E-04
 -1      1192 1.33315E+00 1.07091E+00-1.92398E-01 1.13128E+00-1.51853E-02 3.91727E-04
 -1      1193 5.80719E-01 1.59788E+00-1.07524E-01 1.44986E+00-4.07547E-02 1.69483E-02
 -1      1194 1.07066E+00 8.83910E-01 2.37691E-02 1.26773E+00 3.86751E-02 2.85113E-02
 -1      1195-5.46338E-01 1.11012E+00-1.39840E-03 6.32363E-02-1.66876E-02 2.10247E-02
 -1      1196-2.48072E-01 2.10541E+00 6.50880E-03 5.73171E-01 3.55443E-02-1.54312E-02
 -1      1197 2.65627E-01 2.64909E+00-2.06030E-02 1.00600E+00-3.58984E-02-3.94401E-02
 -1      1198 1.10700E-02-6.42916E-03-1.79725E-04-8.31359E-03 6.16201E-05-9.98934E-04
 -1      1199-1.60106E-01 1.90185E+00-4.41331E-02 1.01985E+00-3.97946E-02-8.09988E-03
 -1      1200 1.41482E-02 1.90090E-02-3.06131E-04 3.99106E-03-2.08349E-04 3.27259E-04
 -1      1201-8.81916E-03 7.18895E-05 1.25389E-03-1.14949E-02 6.10160E-04-9.48285E-04
 -1      1202 4.49688E-01 1.25370E-01 2.70480E-03 4.09405E-01-2.32022E-03 6.69779E-03
 -1      1203 4.01369E-01 2.35934E-01 7.87366E-04 5.00338E-01-6.33220E-03-3.81295E-03
 -1      1204 2.69391E-01 1.58168E-01-4.10344E-03 3.61013E-01 4.19556E-03 1.98452E-04
 -1      1205 2.44215E-01 2.19434E-01-2.88113E-04 3.94318E-01 2.63719E-03 4.59839E-03
 -1      1206-1.29914E+00 1.01397E+00-1.68018E-03 5.16508E-02 4.79886E-04 1.85482E-03
 -1      1207 4.64327E-01 6.42833E-02 1.27757E-02 1.90050E-01-2.31104E-03-2.46615E-03
 -1      1208 2.42222E-02 2.38649E-02 4.34555E-05 1.63222E-02-2.88337E-04 2.54289E-04
 -1      1209-1.41940E-01 5.22205E-01-4.82537E-03 3.73109E-01-1.52541E-03-1.92475E-04
 -1      1210 6.40690E-02 3.42464E-02-7.51252E-03-6.13435E-02-1.01286E-03 3.71022E-04
 -1      1211-9.28893E-02 1.07475E+00 6.95680E-03 9.06073E-01-3.80149E-03-7.46598E-03
 -1      1212 3.59490E-01 1.22383E+00-1.25224E-02 1.16382E+00 1.03289E-02 9.83143E-03
 -1      1213 4.63094E-02 8.28828E-01-1.13886E-02-2.02354E-01 4.02651E-03 1.32326E-03
 -1      1214 7.93795E-02 7.34957E-01 1.14843E-02-1.75479E-01 1.86777E-03 4.40718E-03
 -1      1215 3.99671E-01 8.98470E-01 2.47017E-02-3.73235E-01-3.76023E-03 6.27617E-03
 -1      1216 1.51077E-01 3.72300E-01 8.32891E-04-5.57967E-01 5.38216E-03-2.81876E-03
 -1      1217-3.81132E-01 8.95636E-01-4.81343E-03 5.89900E-01 2.94693E-04-1.68935E-03
 -1      1218-9.88914E-01-3.00798E+00 2.40388E-01-1.44648E+00 2.16954E-02-1.10307E-01
 -1      1219 5.25831E-02 7.50058E-01 1.45781E-03-2.01770E-01-7.11930E-03-1.22428E-02
 -1      1220 9.70670E-02 4.98484E-01-3.77994E-03-4.01634E-01-7.67694E-03-5.84397E-04
 -1      1221-1.50083E-01 5.00664E-01 1.49709E-03-3.22658E-01 2.09368E-03 1.74352E-03
 -1      1222 5.13062E-02 3.00377E-01-9.29779E-03-5.45450E-01-2.23430E-03 2.05688E-03
 -1      1223 4.21675E-03 3.28493E-01-8.16011E-03-3.67220E-01 1.55801E-03 3.19113E-04
 -1      1224-2.61290E-01 1.04276E-02-1.17632E-03-6.08756E-01-5.29560E-03 9.36083E-04
 -1      1225 2.37639E-01 1.28161E+00-4.30935E-03-3.99770E-01 4.99980E-04-6.77000E-03
 -1      1226 1.16174E-01 1.15360E+00-1.47544E-03-3.29791E-01-1.17796E-02 1.34086E-02
 -1      1227-1.44910E-01 2.01363E-01 7.77258E-03-3.20350E-01-3.20299E-03-1.47903E-02
 -1      1228-2.77016E-01 6.37144E-01 6.97303E-03 3.51919E-01 3.64474E-03-5.06302E-03
 -1      1229 6.25809E-02 4.94714E-01 1.10031E-02-1.77674E-01-1.78469E-03 1.11839E-02
 -1      1230 4.88282E-01 4.40719E-01-6.74514E-03 7.31320E-01 5.98052E-03-4.01964E-03
 -1      1231 4.02067E-01 7.12386E-01-2.04645E-03 9.34852E-01 1.26423E-02-6.96748E-04
 -1      1232-9.95293E-01-9.76301E-02-1.19465E-02-7.78659E-01 3.47520E-03-5.55775E-03
 -1      1233 1.79104E-01 2.08552E-01 3.74565E-03 3.31024E-01-3.41308E-04 5.14644E-05
 -1      1234-1.43711E-01 4.59968E-01-3.76174E-03 2.37051E-01-4.15917E-03-6.94393E-04
 -1      1235-6.36925E-02 4.20161E-01 1.61747E-03 3.12632E-01-1.60093E-03-9.90417E-04
 -1      1236 1.02388E-01 1.11643E-01-2.46861E-04-6.77341E-01-4.27537E-03 2.14025E-03
 -1      1237 5.62629E-02 4.37770E-01-3.40015E-03-4.08702E-01 3.08996E-03-2.29265E-03
 -1      1238-4.44051E-02 1.52658E-01-7.15614E-03-5.48442E-01 4.83996E-03-1.95168E-03
 -1      1239-2.76659E-01 5.37913E-02-7.53663E-03-5.19618E-01 8.06123E-03-3.29775E-03
 -1      1240-4.04018E-01 8.12977E-01 4.15751E-03 4.38220E-01 4.39332E-03 2.09580E-03
 -1      1241 4.04738E-01 1.66068E+00 9.10995E-02-7.18415E-01 1.47004E-03-1.71532E-03
 -1      1242-2.18126E-01 2.31464E-01-7.95995E-03-3.34439E-01-8.54731E-03-4.02171E-03
 -3
    1PSTEP                         3           1           1          
  100CL  101 1.000000000        1242                     0    1           1
 -4  TOSTRAIN    6    1
 -5  EXX         1    4    1    1
 -5  EYY         1    4    2    2
 -5  EZZ         1    4    3    3
 -5  EXY         1    4    1    2
 -5  EYZ         1    4    2    3
 -5  EZX         1    4    3    1
 -1         1 5.16377E-06-9.44526E-07-1.45792E-06-2.55656E-06 3.44842E-08 5.55300E-07
 -1         2 4.91753E-06-8.23491E-07-1.42402E-06-2.90265E-06 1.51794E-07-6.95365E-07
 -1         3 5.99421E-08-1.01117E-07 3.01510E-08-5.76157E-08-2.03173E-08-4.93709E-09
 -1         4-2.21369E-08-1.16034E-07 5.23935E-08 5.11172E-08 1.33455E-08 8.96473E-09
 -1         5-9.43277E-08 5.43267E-08 2.26409E-08-8.05574E-08-2.14265E-09-1.36894E-08
 -1         6-7.82801E-08 1.17933E-08 2.49479E-08-1.50063E-07 1.26823E-09 1.39761E-08
 -1         7 7.15732E-05 3.50507E-05-4.91568E-06 5.44098E-05-1.14529E-05-6.78351E-06
 -1         8 4.41694E-05 5.76677E-05 8.35527E-11 5.22018E-05 1.19215E-05 7.28800E-06
 -1         9-3.90535E-08-1.24938E-06-2.83921E-12-5.21464E-07 2.47293E-07 1.96713E-07
 -1        10 2.14383E-12 1.27815E-11 9.03719E-24 7.51112E-12 1.72515E-12 1.74084E-12
 -1        11-5.81724E-05-7.21767E-05-1.18132E-10-7.24222E-05 9.52773E-06 1.49136E-05
 -1        12-5.49591E-05-6.33299E-05-1.16565E-10-6.82475E-05-7.38564E-06-1.13465E-05
 -1        13 3.63379E-06-4.69254E-06 1.80821E-07-3.09396E-06 8.87391E-08-9.30971E-08
 -1        14 3.12031E-06-2.29307E-06-2.12247E-07-4.73529E-06 4.15704E-07 3.88121E-07
 -1        15-2.69976E-06 3.46344E-06-4.44978E-08-2.38478E-06 4.27713E-07-3.45990E-07
 -1        16-3.85264E-06 3.34807E-06 2.76911E-07-4.72807E-06-4.15622E-07 7.64396E-07
 -1        17-4.57375E-06 2.57205E-05-5.95964E-06-4.43678E-06 6.91690E-07-3.33766E-07
 -1        18-3.91427E-06 2.51032E-05-5.77827E-06-5.26842E-06-5.60891E-07 2.95577E-07
 -1        19-2.60846E-06 1.20822E-05-2.74827E-06 7.66342E-07-6.98919E-08 4.63960E-08
 -1        20-9.95603E-06 1.75001E-06 2.13158E-06-9.39110E-06-7.18904E-08-3.89639E-08
 -1        21-5.43047E-06 1.14455E-06 1.13600E-06-9.02004E-06-6.29433E-09 2.19870E-07
 -1        22 1.69330E-06-3.37286E-07-3.31552E-07-8.91981E-06-1.99679E-08 1.70334E-07
 -1        23 8.99708E-06-1.90564E-06-1.90847E-06-9.27115E-06-3.52810E-08 4.88900E-09
 -1        24 8.72002E-06 6.34890E-09-2.04842E-06-9.52272E-06-2.79094E-07-5.14682E-09
 -1        25 5.12630E-07-8.77885E-06 2.10052E-06 1.19305E-06 1.82694E-07-1.78026E-07
 -1        26 2.53671E-06-1.20147E-05 2.74611E-06 3.73511E-07 1.79457E-07 4.46839E-08
 -1        27 3.63114E-06-1.59178E-05 3.50335E-06 2.00786E-07 1.36906E-07 3.66909E-08
 -1        28 6.20293E-06-2.47250E-05 5.46565E-06 7.77832E-07 3.94744E-07 1.98454E-07
 -1        29 1.94074E-05-4.62021E-05 1.54486E-05 8.62965E-06-3.91418E-06-9.21816E-08
 -1        30-2.27802E-05-1.40422E-06-2.62289E-07-1.71561E-05 8.16353E-07 7.30947E-06
 -1        31-3.81801E-06-7.56659E-07 4.41267E-07-4.96973E-06-1.78915E-07 1.33724E-06
 -1        32 6.18089E-07-1.86937E-06-1.12960E-07 2.24893E-06-1.46897E-07 2.65612E-07
 -1        33 1.95243E-06 1.41881E-05-1.34515E-06 1.08890E-05-6.65769E-06 4.91686E-07
 -1        34 2.29765E-05-7.05901E-06-6.15909E-06-8.74015E-07-1.59332E-07 2.56069E-06
 -1        35 6.77798E-06-1.80907E-06-1.37549E-06 4.13557E-07-1.89106E-08-3.33714E-08
 -1        36 1.15780E-06-6.41172E-07-2.60807E-07-5.91523E-07-8.31341E-08-4.31821E-08
 -1        37-7.40315E-07 3.62762E-08 2.03332E-07-2.76447E-07-7.40852E-09-3.20926E-08
 -1        38-4.39810E-07 3.51920E-08 1.02176E-07-1.35077E-07-8.65452E-09-2.62425E-08
 -1        39 6.53004E-08-7.97857E-08 1.38602E-08-3.34988E-07 1.96283E-08 1.01788E-09
 -1        40 4.60132E-08-1.39770E-07 1.90811E-08-1.52776E-07 2.19672E-08-2.74156E-10
 -1        41 4.61951E-08 5.44307E-08-2.13483E-08-2.12450E-07 2.49728E-08-1.16266E-08
 -1        42 1.14693E-07-4.50969E-07 8.42053E-08-2.40280E-07 1.29451E-08 6.39774E-09
 -1        43 1.06219E-07-6.10217E-07 1.32111E-07 3.92880E-08-3.11315E-08 1.50094E-08
 -1        44-1.25733E-07 4.12070E-10 4.33049E-08 2.86721E-07 8.55426E-09-9.42673E-08
 -1        45 3.02867E-08-2.83592E-07 8.54637E-08 2.89315E-07 4.49873E-08-8.64816E-08
 -1        46 7.50068E-06 1.68873E-05-6.20715E-06-1.49672E-05-8.11867E-07 3.27346E-07
 -1        47-3.43313E-06 1.48836E-05-3.47201E-06 9.95708E-08-1.33595E-07-1.32725E-07
 -1        48-4.73115E-08 9.34709E-06-2.38677E-06 1.89083E-06 1.82900E-07-5.60114E-08
 -1        49-8.10916E-06-4.94469E-07 2.21660E-06-1.05143E-05-8.23108E-08-1.11946E-07
 -1        50-3.85232E-06 7.53937E-07 8.17976E-07-9.15742E-06-5.49802E-08-2.05141E-07
 -1        51 4.13853E-06-8.23847E-07-9.31912E-07-9.05719E-06 3.50530E-08-1.37456E-07
 -1        52 1.14851E-05-1.92889E-06-2.51621E-06-9.57234E-06-1.02354E-07 3.75283E-09
 -1        53 2.12575E-06-1.14564E-05 2.31423E-06 1.95078E-06-2.58016E-07 4.01537E-08
 -1        54 2.44627E-06-1.20030E-05 2.70442E-06 4.77189E-07-7.28190E-08 3.98360E-08
 -1        55 3.96566E-06-1.68814E-05 3.69110E-06 3.88199E-07 1.35081E-08-7.87700E-09
 -1        56 7.32751E-06-2.65499E-05 6.03530E-06 1.18911E-06 2.41589E-07-3.29104E-07
 -1        57 1.77597E-05-5.99245E-05 1.64262E-05-6.67588E-06 3.49262E-06 2.89090E-07
 -1        58-2.02427E-05-3.35178E-06 1.18230E-06-1.64648E-05-5.36082E-08-5.55903E-06
 -1        59-2.87399E-06-1.88598E-06 5.02850E-07-4.75982E-06-6.03491E-08-1.01878E-06
 -1        60 1.56409E-06-1.67622E-06-1.34451E-07 1.96460E-06 2.33463E-07 2.63898E-07
 -1        61 1.69541E-06 1.53825E-05-6.44159E-07 8.64120E-06 3.89593E-06 1.88339E-08
 -1        62 3.41923E-05-2.20950E-05-1.23269E-05-6.80122E-06 1.51741E-06-3.01575E-06
 -1        63 9.62563E-06-3.33539E-06-1.96495E-06-7.96386E-07 9.26523E-08-3.79212E-07
 -1        64 7.61710E-07-3.36390E-07-1.37574E-07-2.77408E-08 2.86566E-08 1.09945E-07
 -1        65-5.51755E-07 7.15959E-08 1.04255E-07-6.30297E-08 1.87549E-08 4.37451E-08
 -1        66-4.42004E-07 6.53177E-08 1.00268E-07-1.30285E-07 8.42753E-09 3.30335E-08
 -1        67 5.60106E-08-1.92805E-07 3.98318E-08-3.07625E-07-2.61890E-08 4.43316E-10
 -1        68-2.18688E-08 1.32807E-07-2.40007E-08-1.92630E-07-1.32161E-09 3.03493E-09
 -1        69 1.29633E-07-2.93661E-07 3.62575E-08-2.95619E-07-8.82713E-09-4.79855E-09
 -1        70 1.88136E-07-6.52319E-07 1.27462E-07 2.12201E-08 3.13820E-08 2.72841E-09
 -1        71-3.28851E-07-2.86346E-07 1.85408E-07 6.11067E-07-4.87334E-09 1.18006E-07
 -1        72 7.47659E-06 1.68613E-05-6.17469E-06-1.49524E-05 8.14802E-07-3.12675E-07
 -1        73-1.69048E-06 2.83937E-05-6.60724E-06-1.01007E-05 1.62208E-08-2.59168E-08
 -1        74 6.49683E-06-2.43192E-06-1.92343E-06-2.53023E-06 4.96679E-08 5.58538E-08
 -1        75-6.19886E-08-2.17677E-07 1.45740E-07 7.22535E-08 1.26453E-08-5.84623E-09
 -1        76-9.13985E-08 3.43171E-08 6.21888E-08-1.12265E-07-5.17653E-09 1.84892E-08
 -1        77 3.81942E-05 5.15254E-05-5.31729E-06 4.50036E-05 1.46070E-07 7.86854E-07
 -1        78 1.88194E-08-8.34136E-07-8.25673E-09-3.30858E-07-9.22329E-08-1.95052E-08
 -1        79-5.36504E-05-6.06183E-05 7.09643E-06-6.03994E-05-6.89850E-07 1.30593E-07
 -1        80 4.64409E-06-3.41541E-06-2.14468E-07-4.86309E-06 4.06266E-07 2.76220E-07
 -1        81-5.75900E-06 3.82319E-06 4.41357E-07-4.07745E-06 6.95199E-08-1.74995E-07
 -1        82 1.86660E-07 8.70492E-06-2.49944E-06-8.20919E-06 5.85878E-08 3.82233E-08
 -1        83-4.68421E-07 3.12508E-06-7.29195E-07-7.09046E-06 7.81064E-08 3.01340E-08
 -1        84-7.80870E-08 5.01396E-07-3.44747E-08-1.20225E-05 6.85628E-08 9.46978E-08
 -1        85 1.48996E-06-3.68026E-07-3.65487E-07-1.28523E-05 1.14354E-08 8.65655E-08
 -1        86 3.01878E-06-1.24461E-06-5.62828E-07-1.09457E-05-3.13210E-08 1.40844E-07
 -1        87 1.00521E-06-4.61803E-06 1.06302E-06-4.37621E-06 1.15132E-08-7.73977E-08
 -1        88 1.99812E-06-1.04858E-05 2.38025E-06-4.53027E-06 7.41714E-09 1.63811E-08
 -1        89 2.94384E-06-1.76963E-05 4.05067E-06-7.57841E-06 1.15956E-08 2.17475E-07
 -1        90-1.59314E-06-2.66624E-05 7.63770E-06-2.09165E-05-2.72104E-07 4.79551E-07
 -1        91-3.13055E-05-7.63520E-06 1.65070E-05-3.34804E-05-2.85745E-06-3.47111E-06
 -1        92-2.81204E-05-8.69363E-06 1.26717E-05-3.81201E-06 1.25937E-07-5.41484E-07
 -1        93-4.81902E-06-4.41223E-06 3.24393E-06-1.72280E-06 1.83938E-07-7.93473E-07
 -1        94 1.59283E-06-3.95823E-06 7.75515E-07-6.68207E-07 1.87342E-07-2.20147E-07
 -1        95 2.92713E-06 1.10748E-05-4.69535E-06 2.05982E-07-6.96563E-07-8.88262E-07
 -1        96-2.95625E-06 3.69763E-05-1.12781E-05 1.01184E-05 2.49008E-06-7.88473E-07
 -1        97 1.03719E-05 8.19259E-06-8.93732E-06 2.33828E-05 1.51568E-06 1.89716E-06
 -1        98 8.98676E-06-6.62911E-07-2.23571E-06 8.29871E-06-1.33226E-07-7.31279E-08
 -1        99 1.25882E-06 3.60142E-07-4.24439E-07 1.86841E-06-4.76385E-08-4.59154E-08
 -1       100 3.05811E-07 2.45643E-07-1.48125E-07 2.81652E-07-8.42761E-09-9.70197E-09
 -1       101-5.40965E-07 1.78914E-06-3.45330E-07 2.92165E-07-9.89448E-09-1.83553E-08
 -1       102-9.13797E-07 2.37937E-06-4.19038E-07-6.27740E-07 5.51422E-09 7.22173E-09
 -1       103-1.33642E-07 1.57885E-06-3.97180E-07-1.17356E-06 2.04019E-08 6.31732E-09
 -1       104 7.89915E-07 3.98904E-07-3.18896E-07-7.81793E-07 1.40411E-08-1.56391E-08
 -1       105 9.64498E-07 2.07961E-06-8.43377E-07-3.35073E-06 7.33865E-08-3.84903E-08
 -1       106 3.84857E-06 1.04614E-05-4.22169E-06-5.58171E-06-3.03105E-08-3.49234E-07
 -1       107-5.55544E-07 1.07653E-05-3.03610E-06-7.65556E-06 9.62491E-08 3.83246E-08
 -1       108-2.74930E-06 1.34736E-05-3.12713E-06-2.70131E-06-7.62908E-08-9.82496E-08
 -1       109 2.75480E-06 2.38143E-06-1.46901E-06 7.37742E-06 2.21649E-08 4.78199E-08
 -1       110 1.73956E-06 1.70513E-06-9.16588E-07-1.16111E-05 1.32459E-08 2.53890E-08
 -1       111-9.55125E-06-8.78225E-07 2.95914E-06-1.39030E-05 4.03696E-08-1.12064E-07
 -1       112-1.86029E-06-4.06352E-06 1.62459E-06-1.16756E-05 5.16188E-08 4.25926E-08
 -1       113-3.46716E-08 4.64985E-07-1.24161E-07 6.78423E-08 7.25569E-09 9.28993E-09
 -1       114 3.29102E-07-3.09760E-06 7.64122E-07-1.11526E-05-7.30436E-09-1.48645E-08
 -1       115-1.85005E-05 6.31797E-06 3.28331E-06-1.29891E-05 1.37111E-08-1.81070E-08
 -1       116-1.78663E-05 1.19440E-05 1.64797E-06-5.20133E-07 1.21012E-07-1.71442E-07
 -1       117-1.19773E-05 2.45553E-05-3.59736E-06 1.39268E-05 2.69090E-07 2.61629E-07
 -1       118-1.55086E-06 1.06898E-05-2.56735E-06 1.45354E-05 1.21445E-07 9.82527E-08
 -1       119-3.39755E-06 6.33442E-06-8.24970E-07 1.72265E-06-3.80611E-08-3.82238E-08
 -1       120-3.70358E-06 8.63057E-06-1.34134E-06-3.73152E-06 6.19626E-09-2.88654E-08
 -1       121 7.16660E-07 4.98957E-06-1.55915E-06-7.11026E-06-8.07112E-08-8.67842E-09
 -1       122-2.05146E-06 4.83981E-06-7.82615E-07-1.74278E-06-9.43118E-09 2.15826E-08
 -1       123-2.80475E-05 1.26338E-05 4.52318E-06-6.59904E-06 6.96305E-08-1.69718E-07
 -1       124-2.16853E-07 1.83307E-06-4.65023E-07 1.43761E-06-1.60470E-08 1.44057E-08
 -1       125-2.99312E-06 8.16850E-06-1.44137E-06-4.20650E-06 1.64200E-08 1.85902E-08
 -1       126-1.87866E-07 1.13489E-07 2.67797E-08-1.18520E-05-2.04780E-09-1.58958E-08
 -1       127-6.62595E-06 1.27815E-05-1.72068E-06-1.79273E-06-2.53945E-08-1.32878E-08
 -1       128-6.56646E-06 1.03054E-05-1.06772E-06 1.28865E-06 2.38953E-08 2.55986E-08
 -1       129-1.46285E-05 1.76438E-05-8.22779E-07 7.25091E-06-1.34026E-08-9.55435E-09
 -1       130-8.80411E-06 1.28108E-05-1.08878E-06 6.91683E-06 4.06351E-08-1.20437E-07
 -1       131-2.24130E-05 1.82275E-05 1.20757E-06-1.73311E-08 4.94447E-08-8.63864E-08
 -1       132-6.36310E-06 4.17907E-06 6.22206E-07-9.12253E-06-2.25845E-08-4.75578E-08
 -1       133-7.88400E-06 1.16272E-05-1.11155E-06-1.78510E-06 6.90956E-08 4.14668E-08
 -1       134-1.21436E-05 8.79635E-06 9.41473E-07-7.21779E-06 7.70739E-09-2.35148E-08
 -1       135-1.28515E-05 1.34066E-05-1.93304E-07-9.62672E-07-8.44799E-09-1.90714E-08
 -1       136-6.77949E-06 9.62212E-06-8.24280E-07-3.60585E-06-4.15062E-08 1.24300E-08
 -1       137 8.60785E-07 9.31063E-06-2.87556E-06-8.48314E-06-4.19112E-08-7.64033E-08
 -1       138-4.08980E-07 5.02548E-06-1.37284E-06-6.65052E-06-2.34366E-08-3.06018E-08
 -1       139-4.48803E-07 1.01987E-06-1.66336E-07-1.13180E-05-7.64311E-08-4.08732E-08
 -1       140 9.17205E-07-5.57925E-07-6.54834E-08-1.28975E-05-1.16888E-09-1.80943E-08
 -1       141 2.61930E-06-1.52288E-06-2.78100E-07-1.00800E-05 1.67433E-07-3.21573E-08
 -1       142 1.45936E-06-1.82599E-06 1.29565E-07-5.78681E-06-2.86837E-08-2.42047E-09
 -1       143 1.28641E-06-9.23964E-06 2.22408E-06-6.28385E-06-7.09725E-08-9.15690E-09
 -1       144 8.70529E-07-1.53967E-05 4.10899E-06-1.03498E-05-1.63041E-07-1.15363E-07
 -1       145-5.28869E-06-1.84235E-05 6.48878E-06-1.91040E-05-1.44055E-07-3.66508E-08
 -1       146-2.43190E-05-1.98225E-06 1.19808E-05-2.32438E-05 1.75436E-06 1.42936E-06
 -1       147-2.99850E-05-7.22997E-07 1.16148E-05-4.11930E-06 1.22010E-07 2.42244E-06
 -1       148-8.71516E-06-2.48010E-06 3.76436E-06-5.23903E-07-5.03794E-07 4.62472E-07
 -1       149 1.70102E-07 3.66844E-06-1.19343E-06-2.17482E-07-2.27835E-07 4.53565E-07
 -1       150-2.45560E-06 2.01647E-05-7.41223E-06 2.07495E-07-1.59141E-06 3.23697E-07
 -1       151-9.84801E-06 3.42612E-05-1.07126E-05 2.41696E-05-2.47502E-06-1.03111E-06
 -1       152 1.07917E-05 5.48762E-06-4.07587E-06 1.90071E-05 2.05931E-07 2.98513E-07
 -1       153 4.04768E-06 4.99914E-07-1.21993E-06 5.32636E-06 6.35445E-08 7.00770E-08
 -1       154 1.22749E-06 2.97812E-07-4.24425E-07 1.56274E-06 2.94465E-08-2.05511E-09
 -1       155 3.20065E-07 2.12287E-07-1.33753E-07 2.09296E-07-1.31850E-08-7.11123E-09
 -1       156 8.26823E-08 1.24311E-07-7.00046E-08-1.70063E-07-1.32729E-08-3.26567E-09
 -1       157-1.17914E-06 2.81274E-06-4.61594E-07-1.80626E-07-1.30582E-08-1.52465E-09
 -1       158-3.54107E-07 2.16611E-06-5.15074E-07-1.49014E-06 1.28199E-08-2.76718E-08
 -1       159 1.40445E-06 1.23454E-06-6.57634E-07-2.49355E-06-4.65688E-08 1.10285E-08
 -1       160 3.46567E-06 1.00994E-05-4.18716E-06-4.87229E-06 1.15970E-07 3.81512E-07
 -1       161-3.59743E-07 1.06488E-05-3.08895E-06-7.65716E-06-2.26240E-07-5.35733E-08
 -1       162-1.61031E-06-1.90590E-06 1.33106E-06-3.78819E-07-3.90869E-07-5.22108E-09
 -1       163-1.65407E-06 5.86008E-06-1.08502E-06-4.24842E-06-6.25059E-08 1.18781E-07
 -1       164-1.91462E-07 1.61137E-06-4.04197E-07 1.03254E-06 6.10445E-09 7.07815E-09
 -1       165-2.84999E-06 1.36392E-05-3.12213E-06-2.71972E-06 6.91539E-08 1.13848E-07
 -1       166 1.92189E-06 2.52151E-06-1.25508E-06-1.08483E-05-6.80908E-09-5.77019E-09
 -1       167-2.56127E-07-2.22886E-06 6.86738E-07-1.20553E-05 3.10758E-08-3.47639E-08
 -1       168-9.31534E-06-4.16584E-07 2.72895E-06-1.31097E-05 9.93291E-09 6.72975E-08
 -1       169-1.73541E-05 5.66785E-06 3.29994E-06-1.24396E-05 1.41813E-09 1.00690E-08
 -1       170-2.47701E-05 1.37625E-05 3.11871E-06-7.23101E-06 7.35484E-08 5.08352E-08
 -1       171-2.01423E-05 1.81443E-05 5.31653E-07 1.49992E-06-1.22713E-07-3.07582E-08
 -1       172-1.59896E-05 2.43067E-05-2.50989E-06 7.39319E-06-2.69228E-07 7.42052E-08
 -1       173-8.88558E-06 1.94128E-05-3.00979E-06 1.53841E-05-2.29290E-07-2.43106E-07
 -1       174-3.70974E-07 6.14365E-06-1.62541E-06 9.81570E-06 6.67500E-08 4.68219E-08
 -1       175 4.90178E-08 2.91872E-06-8.52636E-07 4.01823E-06-3.26547E-10 2.69099E-08
 -1       176 2.03641E-06 5.48219E-06-2.12152E-06-7.43885E-06-3.46500E-08 3.40700E-08
 -1       177-5.75657E-06 1.19142E-05-1.74305E-06-2.98196E-06 1.94234E-09-2.01949E-08
 -1       178-2.82028E-06-2.28079E-06 1.42855E-06-1.20908E-05 8.32164E-09 4.58671E-09
 -1       179-1.56557E-06 8.64169E-06-1.98558E-06-4.01681E-06 1.85326E-08-1.96293E-08
 -1       180-4.62128E-06 8.23392E-06-1.03099E-06-5.33778E-07 2.31488E-08-6.55045E-09
 -1       181-3.51946E-06 6.84564E-06-9.68204E-07 3.43749E-06-3.06532E-08-1.85877E-08
 -1       182-1.19790E-05 1.05891E-05 4.06017E-07-4.48921E-06-3.17841E-08-1.04716E-08
 -1       183-7.71034E-06 1.22999E-05-1.29523E-06-1.23622E-06 3.05756E-08-5.00207E-08
 -1       184-1.62373E-05 1.55857E-05 2.11676E-07-1.11875E-07 5.77448E-09-1.62899E-08
 -1       185-1.24243E-05 1.53559E-05-8.17571E-07 5.74505E-06 9.56578E-08 4.61834E-08
 -1       186-7.30622E-06 1.11029E-05-1.05045E-06 1.72428E-06 2.46194E-08-2.76555E-08
 -1       187-1.99169E-05 2.08243E-05-3.45415E-07 4.65561E-06-1.32594E-07 3.79919E-08
 -1       188-2.72806E-06 3.81761E-06-3.14424E-07-8.49713E-06-1.79654E-08 1.34261E-08
 -1       189-6.52413E-07-4.82005E-08 6.53488E-08 4.02658E-07 6.43949E-09-2.38225E-09
 -1       190 2.20035E-07-7.22374E-07 1.35245E-07-1.56580E-07-2.92793E-09-1.29864E-09
 -1       191 3.27058E-05-1.10365E-05-9.48803E-06 1.33379E-06 4.20762E-07 4.40993E-07
 -1       192-4.69331E-07 5.02441E-08 1.19356E-07-1.15639E-07 2.83433E-09-8.94110E-09
 -1       193 1.22647E-06 4.53197E-06-3.04875E-07 4.34010E-06-3.12273E-07 2.67257E-07
 -1       194-9.09946E-06-3.38572E-06 1.21164E-06-8.38846E-06 1.90951E-07 6.31210E-07
 -1       195 1.10880E-06-9.52262E-06 1.78276E-06 1.17360E-06 2.49806E-08-1.76412E-07
 -1       196-8.20925E-06 5.26755E-07 1.77900E-06-1.01249E-05 2.68001E-08-1.11194E-08
 -1       197-1.21543E-06 1.02298E-05-2.28028E-06 6.42885E-07-3.99343E-08 1.81416E-07
 -1       198-3.83990E-06 1.62342E-05-3.89432E-06 6.68344E-08-2.36378E-08-3.00245E-08
 -1       199 3.25523E-07 4.85426E-06-1.39724E-06-5.35500E-06-4.07766E-08 1.50578E-07
 -1       200-4.28921E-08 1.33269E-05-3.73430E-06-7.43850E-06 2.45499E-10-6.24652E-11
 -1       201 2.16158E-06 5.73143E-06-2.24412E-06-8.76331E-06 7.46792E-08 4.21659E-09
 -1       202 2.13328E-06 1.07899E-05-3.65549E-06-8.03495E-06-4.79083E-08 1.71714E-08
 -1       203-1.03919E-07 8.10553E-06-2.26499E-06-7.00783E-06 3.25205E-08 1.39062E-08
 -1       204-1.90500E-06 1.20147E-05-2.88178E-06-5.35121E-06 2.45576E-08 6.68090E-09
 -1       205 1.51433E-06 7.68488E-06-2.61596E-06-6.37209E-06-2.27693E-08-3.79754E-08
 -1       206-9.66104E-07 5.29743E-06-1.26349E-06-7.09403E-06-6.07982E-09-5.14696E-08
 -1       207 2.76634E-07 1.11703E-05-3.28385E-06-3.25041E-06-8.18804E-09 2.43315E-08
 -1       208-4.70819E-06 1.08490E-05-1.71967E-06-2.58552E-06 4.32814E-08 6.67502E-09
 -1       209 1.47054E-06 4.97464E-07-4.92085E-07-1.74063E-06 8.00810E-08-7.22485E-08
 -1       210-6.87190E-07 3.52361E-06-7.87231E-07-2.54969E-06-1.03483E-08 8.62399E-09
 -1       211-4.14739E-06 9.04230E-06-1.41658E-06-2.94049E-06 1.46977E-08-6.07250E-09
 -1       212 1.83411E-06 1.47020E-06-9.17770E-07-3.57672E-06-7.29946E-08-9.80758E-08
 -1       213 3.37365E-07 2.13763E-07-1.33664E-07-2.81566E-07 5.07501E-10 6.78457E-09
 -1       214 1.64166E-06 4.08525E-06-1.61451E-06 8.25497E-06-6.85742E-08 6.12460E-08
 -1       215-7.50883E-07 3.38739E-06-7.25810E-07 3.24109E-06 9.39335E-10 3.40409E-08
 -1       216-3.85648E-06 8.74396E-06-1.47107E-06 8.20888E-06-3.62849E-08-9.52441E-08
 -1       217-1.22616E-06 5.15452E-06-1.07744E-06 5.82789E-06-2.29925E-08-3.85215E-08
 -1       218-3.19024E-06 6.78540E-06-9.77854E-07 4.68630E-06-1.82429E-08 8.11197E-09
 -1       219-5.70098E-07 4.86350E-06-1.22071E-06 6.36509E-06-2.17385E-08 6.63785E-08
 -1       220-2.53041E-06 6.63087E-06-1.24874E-06 6.01168E-06-4.22542E-08-1.30163E-07
 -1       221 1.16049E-06 2.11530E-06-8.60201E-07 4.40106E-06 1.39318E-09 6.95452E-08
 -1       222-3.51561E-06 1.72458E-05-3.95131E-06-1.25622E-06 2.70454E-07-5.32623E-08
 -1       223-2.70874E-06 8.66940E-06-1.51434E-06-4.03757E-07-3.88707E-08-1.09895E-07
 -1       224-7.20220E-06 1.82614E-06 1.22013E-06-6.37289E-06-1.06664E-07-3.90166E-07
 -1       225-8.07029E-06 1.66382E-06 1.63420E-06-8.69506E-06 1.49283E-08 2.79241E-07
 -1       226-2.13617E-06 4.43512E-07 4.49032E-07-8.90384E-06-6.27278E-08 2.49714E-07
 -1       227 5.14183E-06-9.77205E-07-1.04520E-06-9.14058E-06-1.09658E-07 2.02881E-07
 -1       228 9.93913E-06-1.96175E-06-2.05398E-06-8.99676E-06 4.19985E-09-2.05618E-07
 -1       229 6.98878E-06-1.08886E-06-1.04478E-06-7.67445E-06 3.06796E-08 2.68336E-08
 -1       230 1.29385E-06-7.28737E-06 1.28783E-06-2.34819E-07 1.25798E-07-3.41927E-07
 -1       231 2.20674E-06-1.11008E-05 2.55829E-06 7.92814E-07 2.97289E-07 5.42137E-08
 -1       232 3.01574E-06-1.37337E-05 3.08482E-06 2.14550E-07 1.48852E-07 3.62207E-08
 -1       233 4.52184E-06-1.97312E-05 4.43144E-06 4.27368E-07 2.39000E-07 3.37221E-08
 -1       234 7.31273E-06-3.32240E-05 8.51122E-06-7.56895E-08-7.56843E-07 3.85932E-07
 -1       235 1.63808E-05-1.10953E-04 1.35446E-05-4.05662E-05 5.71513E-06 1.50836E-06
 -1       236-4.72118E-05 9.14623E-11-6.90062E-11-2.73350E-05 3.02507E-12 1.16853E-05
 -1       237-1.26674E-05 2.71552E-11-1.70008E-11-9.73509E-06-1.58178E-12 4.23539E-06
 -1       238-1.94588E-06 1.81014E-11-2.83921E-12-2.77150E-06-1.43876E-12 7.48521E-07
 -1       239-8.13203E-12-1.73424E-06-2.83921E-12 9.48449E-07 3.52691E-07 7.78495E-13
 -1       240-1.89690E-11 5.73765E-06 1.25353E-11 7.56898E-06-2.52028E-06 1.32432E-12
 -1       241-3.63002E-11 4.11630E-05 5.73357E-11 2.08225E-05-1.24687E-05 1.08466E-13
 -1       242 7.34126E-05-8.83412E-06-1.30956E-05 2.49848E-05-1.04271E-06-5.07506E-06
 -1       243 1.44549E-05-3.68870E-06-3.01300E-06 1.22006E-06 1.06263E-08-3.60452E-08
 -1       244 3.80547E-06-1.09196E-06-9.92185E-07 1.73657E-07-1.50564E-07-4.48320E-08
 -1       245-3.90954E-07-5.27265E-08 8.33552E-09-3.40360E-07-2.12073E-09-1.62832E-08
 -1       246-6.71974E-07 4.39334E-08 1.40446E-07-2.00021E-07-1.56543E-08-4.44204E-08
 -1       247-2.98374E-07 7.51067E-08 6.91182E-08-7.97849E-08 5.36600E-09-2.61624E-08
 -1       248 5.55439E-08 3.55505E-09-4.31662E-09-2.33918E-07 7.23355E-09 1.75863E-08
 -1       249 1.88936E-08-1.54669E-07 2.72482E-08-2.35149E-07 3.03650E-08 7.10513E-09
 -1       250 1.03005E-08 7.25263E-08-3.08751E-09-2.04158E-07 8.20995E-09-1.25831E-08
 -1       251 1.08917E-07-1.05921E-07 2.20806E-08-2.35866E-07 3.90889E-08-1.66395E-08
 -1       252 1.55814E-07-6.33820E-07 1.18867E-07-9.17967E-08 1.30884E-08-1.99502E-08
 -1       253 1.48748E-07-4.05919E-07 5.51293E-08-1.01419E-07-5.89915E-08 4.48240E-08
 -1       254-5.70181E-08 1.15112E-07-1.97075E-09 1.23045E-07 3.45182E-08-7.68007E-08
 -1       255-2.89899E-07-7.52838E-08 4.69477E-08 2.81326E-07 6.32218E-08-1.03412E-07
 -1       256 1.53585E-06-1.02330E-07-6.04227E-07-7.74779E-07 1.61178E-08 1.22067E-07
 -1       257-1.07092E-06 3.02658E-05-6.93547E-06-1.37032E-05 1.97855E-07-8.16605E-07
 -1       258 1.09518E-05 3.65472E-06-3.48672E-06-9.93675E-06-1.09602E-06 1.12271E-06
 -1       259-3.94208E-06 1.97920E-05-4.50947E-06-1.98462E-06-5.92875E-07-6.92873E-08
 -1       260-2.54495E-06 1.23352E-05-2.80570E-06 3.55516E-07 2.58204E-07-1.15562E-08
 -1       261-4.71049E-07 6.86447E-06-1.49320E-06-2.95439E-07-9.14459E-08-3.92276E-08
 -1       262-7.34945E-06 1.03367E-07 1.87296E-06-9.33884E-06-8.08779E-08 5.46527E-07
 -1       263-7.46730E-06 1.51299E-06 1.58870E-06-9.76946E-06-3.88065E-07-6.41024E-07
 -1       264-7.37162E-08 8.22348E-08-5.50653E-08-9.22420E-06-7.19018E-09-2.67737E-07
 -1       265 7.58758E-06-1.46127E-06-1.60476E-06-9.02146E-06 1.73220E-07-2.89623E-07
 -1       266 8.99418E-06-1.82961E-06-1.88538E-06-7.82417E-06-2.00837E-07 3.16731E-07
 -1       267 2.18168E-06-7.33497E-06 1.12869E-06-1.27034E-06 1.59776E-07 2.38011E-09
 -1       268 1.86913E-06-1.07692E-05 2.61706E-06 1.08700E-06-4.10513E-07 1.25720E-07
 -1       269 3.16613E-06-1.42148E-05 3.16135E-06 3.36236E-07-5.90688E-08 1.92811E-08
 -1       270 4.71942E-06-2.08044E-05 4.99514E-06 1.87486E-07-6.40697E-08-1.58284E-07
 -1       271 8.69399E-06-3.69232E-05 1.00895E-05-2.44576E-06 8.81317E-07-8.90670E-07
 -1       272 1.18622E-05-1.07615E-04 1.22274E-05-4.69899E-05-6.70613E-08 4.16801E-06
 -1       273-4.58175E-05 6.90591E-11-6.97361E-11-2.62566E-05-6.00405E-12-1.06762E-05
 -1       274-1.17178E-05 3.01779E-11-1.77319E-11-9.92272E-06 2.56295E-12-3.19567E-06
 -1       275-3.93199E-07 1.27815E-11 9.03719E-24-1.18278E-06 1.72515E-12-3.19287E-07
 -1       276 2.14383E-12-2.34426E-06 9.03719E-24-1.94822E-07-3.16410E-07 1.74084E-12
 -1       277-1.45096E-11 6.42324E-06 8.36367E-12 5.18356E-06 1.95259E-06-2.94086E-12
 -1       278-2.74449E-11 3.65925E-05 4.59372E-11 1.36882E-05 8.38970E-06-2.55244E-13
 -1       279 7.72874E-05-3.02235E-06-1.08518E-05 4.03676E-05 2.00049E-06 4.94491E-06
 -1       280 1.61993E-05-4.14452E-06-4.48842E-06 1.82762E-07 1.35503E-06-7.52832E-07
 -1       281 4.03381E-06-1.09326E-06-1.17052E-06 1.14556E-07 4.81160E-08 3.99199E-08
 -1       282-5.10969E-08-2.79383E-08-5.23653E-08 7.22329E-08 6.31647E-08 8.09766E-08
 -1       283-6.08502E-07 8.53701E-08 1.21883E-07-9.92783E-08 3.82921E-08 5.67072E-08
 -1       284-2.21074E-07 2.43721E-08 4.93888E-08-1.35295E-07 8.74775E-09 2.45040E-08
 -1       285-3.69601E-08-6.06119E-09-1.93757E-09-2.62257E-07-1.25616E-08-1.36837E-08
 -1       286-4.36529E-09-6.99878E-08 1.59531E-08-2.34654E-07-5.93838E-09 7.74853E-09
 -1       287 1.04941E-07 5.16266E-08-1.39283E-08-2.63338E-07-5.03732E-09 2.48207E-08
 -1       288 1.70584E-07-5.68016E-07 9.49433E-08-1.36923E-07-2.13375E-08 3.92996E-08
 -1       289 1.29618E-07-4.06217E-07 7.27527E-08 4.43323E-08 5.53445E-08-4.95196E-08
 -1       290-1.14307E-07 1.96242E-07-2.75200E-08 5.28773E-08-2.97517E-08 7.06766E-08
 -1       291 9.65587E-07-2.66030E-07-3.06349E-07-3.00331E-07 1.11442E-07-8.36949E-08
 -1       292-9.47773E-07 2.97606E-05-6.74593E-06-1.38951E-05-3.15118E-08 8.92242E-07
 -1       293 1.06416E-05 3.74342E-06-3.38248E-06-1.00484E-05 1.22196E-06-9.69154E-07
 -1       294-3.40788E-06 2.69967E-05-6.10342E-06-6.43141E-06-8.44048E-07 3.77713E-07
 -1       295-4.15146E-06 2.85428E-05-6.20914E-06-6.40507E-06 1.03289E-06-5.14499E-07
 -1       296 5.19506E-06-1.89747E-06-1.67344E-06-1.79726E-06-1.37814E-07-2.17217E-07
 -1       297 5.24810E-06-1.69668E-06-1.69592E-06-1.85238E-06 2.98362E-07 3.63822E-07
 -1       298-6.73380E-08-1.52010E-07 1.15641E-07 6.25231E-08 7.44553E-09 2.28352E-08
 -1       299 1.59000E-08-1.55962E-07 9.80675E-08-2.88943E-08-1.85418E-08 1.27293E-09
 -1       300-7.68354E-08 2.06649E-08 4.40741E-08-1.19516E-07-5.66154E-09 2.69910E-08
 -1       301-8.52977E-08 6.24010E-08 3.95383E-08-9.71721E-08-9.01196E-09-3.71295E-08
 -1       302 4.33679E-05 5.60812E-05 8.35527E-11 4.87050E-05 8.83084E-06 5.52283E-06
 -1       303 4.94262E-05 5.06082E-05 9.06307E-11 5.35145E-05-1.02923E-05-1.69750E-06
 -1       304 2.14383E-12 1.27815E-11-2.36594E-23 7.51112E-12 1.72515E-12 1.74084E-12
 -1       305-7.47035E-09-1.17614E-06-2.83921E-12-4.72481E-07 1.06469E-07 8.46924E-08
 -1       306-5.61136E-05-6.06844E-05-1.16565E-10-6.57985E-05-5.55018E-06-8.03735E-06
 -1       307-5.53757E-05-6.95786E-05-1.18132E-10-6.59598E-05 7.33916E-06 9.98376E-06
 -1       308 3.80011E-06-2.76842E-06-1.85176E-07-4.80268E-06 5.78413E-07 4.28314E-07
 -1       309 4.24788E-06-3.88561E-06 7.89004E-08-4.14441E-06-2.28969E-07 3.16088E-07
 -1       310-4.88651E-06 3.81280E-06 2.61319E-07-4.57692E-06-5.56469E-07 6.01950E-07
 -1       311-3.42855E-06 3.33824E-06 9.56277E-08-2.64409E-06 8.55129E-07-1.56948E-07
 -1       312-1.68531E-06 1.04846E-05-2.51854E-06-3.71122E-06 3.34796E-08-7.10503E-08
 -1       313-2.24008E-06 1.61901E-05-3.95667E-06-5.96462E-06 9.31143E-08 9.27412E-08
 -1       314-1.29856E-06 2.91033E-06-3.55645E-07-4.69021E-06 8.93273E-08-1.56519E-07
 -1       315-1.12527E-06 7.62211E-06-1.91844E-06-2.82358E-06 1.20602E-07 2.70990E-07
 -1       316-4.35904E-07 6.26629E-06-1.66855E-06-7.32649E-06 1.04127E-07 5.58100E-09
 -1       317-4.88958E-06 2.07683E-06 8.48848E-07-8.63332E-06-1.48564E-07-1.25683E-07
 -1       318-2.18766E-06 6.22604E-07 5.60815E-07-1.08310E-05-2.23850E-08 1.39538E-08
 -1       319-3.48637E-06 1.11335E-06 7.33899E-07-1.03201E-05 7.77498E-08 7.32827E-08
 -1       320-7.82694E-07 1.89741E-06-4.20839E-07-9.68609E-06 1.76520E-07 1.41170E-07
 -1       321 1.69175E-06-5.30551E-07-2.73992E-07-1.10314E-05-1.13227E-08 6.53839E-08
 -1       322-1.30608E-06 3.12466E-07 2.42895E-07-1.10163E-05 3.66098E-08 1.50825E-07
 -1       323 3.00725E-07 1.19827E-07-1.95154E-07-1.25206E-05 1.56546E-07 8.78440E-08
 -1       324 5.91352E-06-1.36890E-06-1.30585E-06-1.01604E-05-5.96705E-08 1.35126E-07
 -1       325 2.69125E-06-5.89795E-07-6.35232E-07-1.01601E-05-8.24815E-08 7.07940E-08
 -1       326 2.07774E-06-7.34940E-07-4.11592E-07-1.20178E-05-1.50653E-07 4.94612E-08
 -1       327 5.34359E-06-9.73255E-07-1.23691E-06-9.65708E-06-9.72692E-08 1.36476E-07
 -1       328 3.69149E-06-3.29693E-06 9.04053E-08-4.39707E-06-2.49185E-07-1.80477E-08
 -1       329 1.61909E-06-8.07481E-06 1.93049E-06-1.84061E-06 6.12356E-08-5.79175E-09
 -1       330 1.14142E-06-6.16207E-06 1.47677E-06-1.91958E-06 2.09628E-07-1.04768E-07
 -1       331 2.78668E-06-1.33244E-05 2.93980E-06-2.19713E-06 6.07054E-08 2.85016E-08
 -1       332 2.36814E-06-1.11986E-05 2.47684E-06-2.03690E-06 5.76061E-08 2.19160E-08
 -1       333 1.55113E-06-7.71671E-06 1.73619E-06-4.25049E-06-1.54338E-08-5.60532E-08
 -1       334 4.38095E-06-2.18560E-05 4.71062E-06-3.88868E-06 3.15291E-07 1.57146E-07
 -1       335 3.56226E-06-1.72834E-05 3.81333E-06-3.39189E-06 3.14816E-08 1.09074E-07
 -1       336 2.31285E-06-1.38094E-05 3.27879E-06-5.75871E-06-5.22411E-08 1.26421E-07
 -1       337 4.64968E-06-4.14652E-05 9.81173E-06-1.32338E-05-7.87047E-07 8.90617E-07
 -1       338 4.57749E-06-2.90750E-05 6.83463E-06-9.15151E-06-1.73393E-08 3.21497E-07
 -1       339 1.60145E-06-2.21443E-05 5.98503E-06-1.29176E-05-3.26067E-08 3.84526E-07
 -1       340-4.04434E-05-4.65518E-05 1.30712E-05-5.82155E-05-2.24259E-06 1.73390E-06
 -1       341-1.70582E-06-1.95471E-05 1.85353E-05-1.26145E-05-5.40833E-06-2.49424E-06
 -1       342-1.46183E-05-2.10565E-05 1.09709E-05-2.94924E-05-4.85726E-07-5.31938E-07
 -1       343-2.52506E-05-9.73402E-06 7.55399E-06-1.15310E-05 3.03997E-07 3.15316E-06
 -1       344-5.09025E-05-1.60450E-05 1.26564E-05-2.58007E-05-3.39645E-07 4.54450E-06
 -1       345-2.91005E-05-6.80620E-06 1.67648E-05-1.31071E-05-2.96354E-06-3.86440E-06
 -1       346-3.52817E-06-4.51322E-06 2.67686E-06-4.39794E-06 3.19158E-07-3.39460E-07
 -1       347-1.21150E-05-5.14581E-06 3.30112E-06-8.05779E-06 2.75975E-07 1.50414E-06
 -1       348-1.64382E-05-4.07646E-06 7.14578E-06-3.43973E-06-5.12527E-07-7.36828E-07
 -1       349 1.31499E-06-3.19139E-06 5.20739E-07-6.46093E-07 3.54024E-07-7.10807E-08
 -1       350-8.78894E-07-3.17960E-06 9.07922E-07-2.51395E-06 2.02894E-07 5.65196E-07
 -1       351-1.79073E-06-3.69492E-06 1.61177E-06-1.11106E-06 4.72003E-07-1.94490E-07
 -1       352 1.52034E-06-2.26029E-06 1.84121E-07 4.26493E-07-2.34930E-08-9.65208E-08
 -1       353 4.09115E-06 1.36041E-05-3.98774E-06 4.45303E-06-3.32750E-06-1.64649E-07
 -1       354 2.82471E-06 2.82029E-06-2.09681E-06 1.64838E-06 3.54444E-07-4.84177E-07
 -1       355 1.13898E-06 2.83031E-06-1.54662E-06 4.73261E-07-1.01914E-07-1.07715E-06
 -1       356 6.50925E-06 5.73771E-05-1.05159E-05 2.79280E-05-3.14804E-06 7.89149E-07
 -1       357 5.04985E-06 2.42629E-05-9.99049E-06 9.64208E-06-2.12547E-06-6.84994E-07
 -1       358-7.64986E-07 2.38831E-05-7.53044E-06 3.48295E-06-8.77506E-07-2.09256E-06
 -1       359 1.32420E-05 5.16815E-07-5.81758E-06 1.05139E-05 7.32816E-07 4.12504E-06
 -1       360 4.83140E-05 1.17029E-05-1.07789E-05 4.24466E-05-2.42436E-06-2.67449E-06
 -1       361 4.86453E-06 1.82038E-05-1.26447E-05 1.75825E-05 2.46392E-06 1.04851E-06
 -1       362 8.36647E-06-1.50388E-06-1.64323E-06 3.84284E-06-9.29057E-08 7.87633E-08
 -1       363 1.86494E-05-3.87905E-06-3.88218E-06 5.65390E-06-2.74176E-07-7.42214E-07
 -1       364 1.25781E-05 3.72987E-06-4.32441E-06 1.65820E-05 5.61599E-07 5.36323E-07
 -1       365 5.23047E-07 9.86294E-08-9.93786E-08 6.64994E-07-1.45000E-08-1.04083E-07
 -1       366 1.50424E-06-8.72596E-08-3.28585E-07 7.16196E-07-5.48926E-08-1.68317E-07
 -1       367 1.28914E-08 7.43603E-08-1.10463E-08-5.45285E-09-1.46702E-08 8.18077E-09
 -1       368-1.95542E-08 1.34289E-07 2.01866E-08 7.51026E-08-5.25798E-09-3.69162E-08
 -1       369 7.54380E-07 3.22296E-07-2.99174E-07 1.02871E-06-1.93741E-08-4.40765E-08
 -1       370-1.10466E-07 3.99451E-08 2.61160E-08-2.35868E-07 1.02191E-08-7.21569E-09
 -1       371-2.96870E-07 8.91576E-07-1.82083E-07 2.54806E-08 1.89013E-08-6.95913E-09
 -1       372-2.09397E-07 7.79589E-07-1.68950E-07 8.07281E-08 1.12061E-08 3.05712E-09
 -1       373-3.05253E-07 9.20824E-07-1.88826E-07-4.93636E-07 2.15709E-09 2.30976E-08
 -1       374-3.91654E-07 1.11285E-06-2.14297E-07-3.69596E-07 5.63738E-09-1.07584E-08
 -1       375-6.91485E-07 2.18532E-06-3.88157E-07-1.15620E-07 1.59254E-08-1.47839E-08
 -1       376 6.10269E-08 3.59360E-07-1.25468E-07-4.75726E-07-2.10035E-08 3.72495E-08
 -1       377-5.93254E-08 5.22030E-07-1.27051E-07-6.36182E-07-1.15158E-08 4.72003E-09
 -1       378-5.71079E-07 2.10419E-06-4.19661E-07-9.52540E-07 3.95009E-08-1.92875E-08
 -1       379 2.29991E-08-1.72497E-07 6.78320E-08 8.50087E-08-9.92252E-09-1.88784E-08
 -1       380 8.43354E-07 9.65551E-08-1.95236E-07-4.51904E-07 8.66361E-08-1.14101E-07
 -1       381 4.30343E-07 1.10538E-07-1.43629E-07-1.54103E-07 1.53415E-08-7.44964E-08
 -1       382 3.27138E-06 7.99136E-07-1.16083E-06-3.34221E-06 8.29255E-08 2.66382E-07
 -1       383 1.19302E-06 4.47300E-07-4.44685E-07-1.44689E-06 9.61452E-08-1.24460E-07
 -1       384 8.02166E-07 1.21275E-06-6.26143E-07-1.92357E-06 5.17072E-09 1.12599E-08
 -1       385 1.00019E-06 1.73631E-05-5.44721E-06-6.20373E-06-3.45926E-07-3.05967E-07
 -1       386 4.02396E-06 1.51508E-05-5.53034E-06-9.42226E-06-4.10593E-07 7.53063E-09
 -1       387 4.92146E-06 1.20284E-05-4.19581E-06-1.12545E-05-3.86565E-07 3.36370E-08
 -1       388 3.33399E-06 4.10925E-06-2.36716E-06-5.72905E-06-8.77773E-08 3.44181E-07
 -1       389 3.40200E-06-2.36244E-06-4.52924E-07-6.32301E-06-3.03546E-07-1.01284E-08
 -1       390 8.34848E-08 9.86752E-08-6.40924E-08-1.36735E-07 3.09152E-09-6.88454E-09
 -1       391 1.74695E-06-2.75499E-06 2.22491E-07-7.68523E-06 5.63612E-08 5.32731E-08
 -1       392 8.54091E-07 1.46735E-05-4.44404E-06-6.97154E-06-3.05883E-07-3.49009E-07
 -1       393-2.15845E-06 1.29940E-05-3.15322E-06-4.92437E-06 6.92585E-08-1.37282E-07
 -1       394-1.62398E-07 1.26984E-05-3.54275E-06-3.04760E-06-1.77769E-07-1.10998E-07
 -1       395 2.78728E-06 2.73132E-07-8.98701E-07 3.04517E-06-7.59142E-08-1.82307E-07
 -1       396 6.32597E-06 5.76817E-08-1.65450E-06 4.31849E-06-9.89448E-08 2.60773E-08
 -1       397 2.59410E-07-9.10453E-08-6.64162E-08-1.63731E-07 8.18421E-09-2.39218E-09
 -1       398 2.76179E-07 5.68910E-06-1.63230E-06-5.95352E-06-4.51817E-08-3.70158E-08
 -1       399 2.85840E-06 9.94018E-06-3.45307E-06-8.09434E-06 6.49199E-08-1.69865E-07
 -1       400 2.18754E-06 1.27474E-06-9.57025E-07 4.26157E-06 3.75751E-08-2.76599E-09
 -1       401 5.50799E-07 2.54517E-06-8.55972E-07-9.54002E-06 9.67574E-08-1.12269E-07
 -1       402 1.32289E-06 4.81688E-06-1.74193E-06-9.94638E-06 6.62931E-08 4.82379E-08
 -1       403 4.35788E-07 1.27544E-06-4.29107E-07-1.18805E-05 6.02000E-08-9.32314E-09
 -1       404-7.22412E-06-1.12111E-05 5.21992E-06-1.75348E-05 6.17351E-08 1.66427E-07
 -1       405-2.92693E-06-8.87783E-06 3.53714E-06-1.14373E-05 1.59568E-07 1.04508E-07
 -1       406-5.01872E-08-1.04956E-05 2.86407E-06-1.02575E-05 1.36542E-07 9.74832E-08
 -1       407 3.00383E-07-7.39439E-06 2.04245E-06-8.52892E-06 7.63184E-08-6.96431E-08
 -1       408-5.54062E-06-3.12481E-06 2.35789E-06-1.27724E-05 1.38852E-07 1.11157E-08
 -1       409 7.60539E-09 9.89679E-08-4.03671E-08-1.50471E-07 2.11001E-08 1.00697E-08
 -1       410 1.22430E-07 4.15902E-07-1.29845E-07 1.98961E-07-2.37941E-09 4.22731E-09
 -1       411 8.95900E-07-6.48442E-06 1.54751E-06-7.99481E-06 1.64943E-08 6.51007E-08
 -1       412 8.37261E-07-3.89444E-06 9.36355E-07-8.04974E-06 4.87900E-08-4.56386E-08
 -1       413 1.64047E-06-2.39828E-06 2.03734E-07-1.10318E-05-3.94104E-09 2.70625E-08
 -1       414-6.41125E-07-3.82334E-06 1.18381E-06-1.14375E-05 1.19585E-08-2.95115E-08
 -1       415-2.10333E-05-2.41332E-06 7.66044E-06-1.95623E-05-4.24645E-09-5.58023E-07
 -1       416-1.26321E-05-6.97103E-06 5.36608E-06-1.74973E-05-6.54979E-08 2.04838E-07
 -1       417-1.43919E-05 1.85333E-06 3.23635E-06-1.39051E-05 6.19449E-08 2.50851E-08
 -1       418-1.11078E-05 3.15442E-06 2.10958E-06-1.22399E-06 3.68607E-07-1.57282E-08
 -1       419-2.30477E-05 4.14291E-06 5.28241E-06-2.51494E-06 5.06131E-07-7.81447E-07
 -1       420 2.52339E-07 2.00421E-05-5.28996E-06 2.17616E-05 1.90292E-07 8.47131E-07
 -1       421-9.50968E-06 3.04498E-05-5.93162E-06 1.32708E-05 1.26209E-06-9.73158E-08
 -1       422 3.60353E-06 4.90498E-06-2.47140E-06 1.18753E-05-5.92942E-08-4.16382E-08
 -1       423 5.20296E-06 9.82121E-06-4.85502E-06 1.85265E-05 2.40220E-07 4.62788E-07
 -1       424-5.88608E-06 1.80493E-05-3.34121E-06 1.62013E-05 9.72601E-10 1.19170E-07
 -1       425 2.56079E-07 1.06330E-06-3.47000E-07-1.01043E-06-1.65971E-08 2.98715E-08
 -1       426-3.00528E-07 1.07101E-06-2.42590E-07 2.17010E-07 1.31493E-08 9.44910E-09
 -1       427-5.02227E-09 1.48038E-07-5.34066E-08-3.99664E-08 1.35333E-08 8.79154E-09
 -1       428-2.13636E-06 4.25013E-06-6.31444E-07 2.41429E-07-2.44109E-08 4.68201E-09
 -1       429-1.75679E-06 3.89581E-06-5.76176E-07 9.74660E-07 1.00382E-08-5.10677E-08
 -1       430-2.27168E-06 9.54469E-06-2.04408E-06-5.58423E-06 1.31831E-07 8.77895E-09
 -1       431-1.24292E-06 5.23954E-06-1.13595E-06-3.73010E-06-3.41174E-08-1.09723E-08
 -1       432 2.14492E-07 1.87778E-06-6.39191E-07-2.06327E-06 5.55680E-08-1.94353E-08
 -1       433 1.73405E-06 6.08509E-06-2.21658E-06-8.07556E-06 3.46183E-09 5.04594E-08
 -1       434 1.46318E-06 7.79162E-06-2.78439E-06-5.95189E-06-1.45271E-07-5.37002E-08
 -1       435 1.65566E-06 3.40472E-06-1.35275E-06-9.76062E-06-6.00266E-08 1.28362E-07
 -1       436-1.18247E-06 3.28361E-06-6.11163E-07 2.41013E-06-1.34332E-07-8.90842E-09
 -1       437-1.08042E-06 4.74159E-06-1.06075E-06 4.85184E-06-5.82863E-09-4.52672E-08
 -1       438 9.84432E-07-1.49383E-06 9.83605E-08-1.20801E-05-4.68649E-08 3.08346E-08
 -1       439 1.07711E-06 4.33092E-07-4.54555E-07-1.23600E-05 4.49438E-08-4.36677E-09
 -1       440-6.86989E-07 3.81354E-06-8.78490E-07-2.67672E-06 3.75849E-08-1.07989E-08
 -1       441-9.62238E-07 3.09130E-06-5.77760E-07-1.57352E-06 4.25532E-08-5.74980E-08
 -1       442-1.53625E-06 3.49877E-06-5.68967E-07-1.07625E-06-7.32006E-09 9.78158E-09
 -1       443-2.83584E-06 6.65461E-06-1.10072E-06-2.73524E-06 3.25476E-08-3.14892E-08
 -1       444-2.23874E-05 1.17391E-05 2.91480E-06-2.52196E-06 7.91831E-08-1.65717E-07
 -1       445-3.10751E-05 7.03743E-06 6.65844E-06-4.99539E-06 4.71995E-07-5.16007E-07
 -1       446-3.09367E-05 1.53083E-06 9.57414E-06-1.84913E-05 6.00076E-07-9.44005E-07
 -1       447-1.41432E-07 1.17949E-06-2.97318E-07 6.60129E-07 1.89501E-08 1.67034E-08
 -1       448 3.33498E-08 9.39929E-07-2.97780E-07 8.47996E-07-2.21540E-08 2.57107E-08
 -1       449-2.78742E-07 9.27345E-06-2.65120E-06-4.31151E-06-2.54768E-08 6.40593E-09
 -1       450-2.60765E-06 1.03681E-05-2.20371E-06-3.09334E-06-5.68667E-08-6.90760E-08
 -1       451-1.04418E-06 6.82103E-06-1.48378E-06-5.76935E-06 3.23129E-08-5.50972E-08
 -1       452-2.76790E-06 5.71470E-06-7.97020E-07-2.25311E-07 1.28352E-09 2.68724E-08
 -1       453 9.06611E-07-2.66792E-07-2.48129E-07-1.27103E-05 4.38873E-08-5.48704E-08
 -1       454 1.04226E-06 7.62375E-07-4.70758E-07-1.17507E-05-7.91346E-08 3.70095E-08
 -1       455-4.18723E-08 2.55814E-06-6.84865E-07-9.47526E-06 4.61836E-09 5.63446E-09
 -1       456-3.15185E-08-1.36360E-06 4.09423E-07-1.18969E-05 1.56182E-08-7.37260E-08
 -1       457-1.57460E-05 1.93675E-05-1.18197E-06 5.45971E-06 1.54394E-07-9.96042E-09
 -1       458-1.12925E-05 2.29674E-05-3.61562E-06 4.59863E-06 6.66117E-07-3.51658E-07
 -1       459-1.81455E-06 2.85492E-06-3.73859E-07-1.68407E-07 3.25187E-07-1.49771E-07
 -1       460-8.62597E-06 1.28602E-05-9.82614E-07-1.32757E-07 2.00417E-07-3.65660E-07
 -1       461-2.40429E-05 9.01109E-06 3.80119E-06-1.12399E-05 2.88011E-08-3.72966E-07
 -1       462-4.17533E-07 1.89314E-06-4.13175E-07 8.66490E-07-4.77492E-08-3.83316E-08
 -1       463 4.51616E-07 1.11717E-06-4.74956E-07 1.91950E-06-6.52129E-08 8.46476E-08
 -1       464-4.43180E-06 1.25567E-05-2.36325E-06-4.35741E-06 2.63146E-07-1.46925E-07
 -1       465-5.25394E-06 1.08391E-05-1.47439E-06-2.94964E-06 1.41649E-07-1.43878E-07
 -1       466-4.98784E-06 1.32268E-05-2.46601E-06-2.14524E-06-1.61682E-09-5.23102E-08
 -1       467-1.39286E-06 3.95209E-06-6.16014E-07 1.85208E-06 2.49773E-08-1.88945E-07
 -1       468-4.28345E-06 7.60899E-06-9.25945E-07-4.22977E-07 1.70948E-08 3.96545E-08
 -1       469-4.92413E-06 8.21439E-06-9.26255E-07 1.44698E-06-9.58382E-10 3.19116E-08
 -1       470-5.37922E-06 9.84991E-06-1.21493E-06-1.37254E-06 4.19261E-08-3.26921E-09
 -1       471-9.04753E-06 1.51258E-05-1.60347E-06 1.14556E-05-2.74099E-08 5.13857E-08
 -1       472-1.34928E-05 2.06748E-05-2.23156E-06 1.05083E-05 4.94708E-08 1.16765E-07
 -1       473-5.82274E-06 9.56125E-06-1.00854E-06 4.40523E-06-3.03266E-08-8.69035E-08
 -1       474-3.36727E-06 7.91822E-06-1.34128E-06 7.91440E-06-7.58793E-08-5.01781E-08
 -1       475 5.32282E-06 8.33704E-07-1.88107E-06 7.82014E-06-1.11928E-07-1.69996E-07
 -1       476 1.84743E-06 6.10440E-06-2.04138E-06 1.12885E-05 1.85030E-07 3.16246E-07
 -1       477-2.14916E-05 1.67127E-05 1.47414E-06-2.72638E-07-1.68821E-07-4.03764E-08
 -1       478-2.40616E-05 1.50894E-05 2.87483E-06-3.74590E-06-1.15027E-07 6.11962E-08
 -1       479-2.14344E-05 1.24133E-05 2.30270E-06-6.80314E-06-2.01369E-07-2.12714E-07
 -1       480-1.79173E-05 2.15801E-05-1.11871E-06 6.69697E-06 1.87740E-07 1.67257E-07
 -1       481-1.22864E-06-1.77372E-06 8.37813E-07-1.16796E-05 3.19955E-08 3.23043E-08
 -1       482-6.00507E-06 1.18700E-05-1.77085E-06 1.05320E-05 5.54514E-08-3.86113E-08
 -1       483-1.14990E-05 1.57317E-05-1.02804E-06 7.55230E-06 1.15999E-07 8.21973E-08
 -1       484-7.85936E-06 1.82974E-06 1.73260E-06-1.11930E-05-6.17733E-08-3.36358E-08
 -1       485-4.08994E-06 3.05717E-07 1.10414E-06-1.06550E-05 3.72302E-08 2.94066E-08
 -1       486-3.29605E-06 1.83462E-06 3.65676E-07-1.04796E-05 8.32075E-09 4.54349E-09
 -1       487-5.76141E-06 1.02683E-05-1.27695E-06-2.92580E-06 6.17043E-08 3.29764E-08
 -1       488-5.43611E-06 1.22849E-05-1.98950E-06-2.29030E-06-4.66039E-08 5.18504E-08
 -1       489-7.35765E-06 1.24872E-05-1.40916E-06-1.62602E-06-1.30903E-07 8.48047E-08
 -1       490-1.11288E-05 4.26485E-06 1.97923E-06-1.04989E-05 2.12227E-08-6.29442E-08
 -1       491-9.37101E-06 6.29335E-06 7.38237E-07-8.10986E-06 1.16345E-08-7.43792E-08
 -1       492-1.48614E-05 7.46713E-06 2.23570E-06-9.98380E-06-1.44825E-09 1.70100E-07
 -1       493-6.73478E-06 1.14040E-05-1.35174E-06-2.26041E-07-1.04816E-08-1.42839E-09
 -1       494-1.15617E-05 1.40975E-05-6.86006E-07 3.11253E-06 1.67980E-08-4.64332E-08
 -1       495-1.41909E-05 1.54703E-05-4.99711E-07 2.79688E-06-1.04122E-07-8.21148E-08
 -1       496-1.79417E-05 1.30800E-05 1.27602E-06-4.28084E-06 4.23801E-08-1.31006E-07
 -1       497-1.84271E-05 1.79525E-05 2.25176E-07 3.65340E-06 5.37732E-08-8.66333E-08
 -1       498-7.64343E-06 1.13206E-05-1.01460E-06 3.87375E-06 6.49000E-08 8.53316E-08
 -1       499-2.94285E-06 4.68073E-06-4.64751E-07-7.96612E-06 1.36807E-09-2.31131E-08
 -1       500-9.68718E-06 1.26313E-05-8.62248E-07 9.39512E-07 4.37621E-08-1.23358E-07
 -1       501-1.78405E-05 1.59635E-05 5.89188E-07-8.02597E-07 8.59718E-08-1.40525E-07
 -1       502-9.41672E-06 1.28686E-05-1.04749E-06-7.92080E-07 1.97554E-08 3.98895E-09
 -1       503-6.58300E-06 6.99365E-06-8.74846E-08-6.31411E-06-6.17434E-08-8.85034E-09
 -1       504-3.14992E-06 7.49843E-06-1.19167E-06-5.24932E-06-1.10229E-11 6.10027E-09
 -1       505-1.26800E-05 1.09332E-05 4.67220E-07-4.48193E-06-7.46758E-08 4.25889E-08
 -1       506-9.31291E-06 9.29988E-06 3.69579E-08-5.16726E-06-4.52102E-08-4.59848E-08
 -1       507-9.69990E-06 1.12351E-05-4.51146E-07-2.46561E-06-2.87480E-08-9.56945E-09
 -1       508-9.90420E-06 1.20296E-05-6.81050E-07-1.44449E-06 9.37559E-08-1.95793E-08
 -1       509-7.30822E-06 1.06473E-05-9.80530E-07-2.68808E-06 5.92777E-08 4.19327E-08
 -1       510-5.11929E-06 9.09242E-06-1.19046E-06-3.97692E-06-6.86702E-09 4.74185E-08
 -1       511-1.53647E-06 1.65725E-05-4.31586E-06-6.57485E-06-1.78525E-07 4.64717E-08
 -1       512-1.64542E-06 1.24200E-05-3.11206E-06-4.20920E-06-1.14484E-07-7.09845E-08
 -1       513-1.69909E-06 1.00586E-05-2.50504E-06-3.43951E-06-9.03102E-08-1.13765E-07
 -1       514-1.12602E-06 6.69424E-06-1.63726E-06-3.06556E-06 1.87770E-07 5.69626E-08
 -1       515 9.51176E-08 7.50464E-06-2.12443E-06-7.40719E-06-7.87486E-09-2.45907E-08
 -1       516-3.69011E-06 3.78002E-06-1.37798E-07-4.66422E-06 8.95037E-08-1.77260E-07
 -1       517-3.66270E-06 8.77415E-07 8.85042E-07-1.01354E-05-2.44420E-07-1.70160E-07
 -1       518-1.75986E-06 6.60484E-07 3.37208E-07-1.04440E-05-3.62503E-08-2.18386E-07
 -1       519-1.15648E-06 2.91841E-07 3.17380E-07-1.08676E-05-3.67635E-08-1.44957E-07
 -1       520 2.44432E-06-7.43186E-07-5.00515E-07-1.09834E-05 1.50410E-08-1.66611E-07
 -1       521 1.84381E-07 1.67463E-08-1.73945E-07-1.23460E-05-1.57014E-07-1.24567E-07
 -1       522 3.69351E-06-1.11065E-06-6.76133E-07-9.90149E-06 1.89363E-08-1.34143E-07
 -1       523 6.04819E-06-1.98781E-06-1.17366E-06-9.28090E-06 2.51763E-07-3.70330E-08
 -1       524 2.06098E-06-8.96898E-07-2.88723E-07-1.20535E-05-5.23476E-08-6.97057E-08
 -1       525 5.89351E-06-1.31912E-06-1.32669E-06-8.31591E-06-1.54928E-07 6.34843E-08
 -1       526 1.48481E-06-1.47987E-06 1.28072E-08-4.97967E-06 1.13139E-07 8.70642E-08
 -1       527 1.87873E-06-6.12169E-06 1.22122E-06-1.37748E-06-1.74121E-07-1.80596E-08
 -1       528 2.53573E-06-1.74890E-06-2.04284E-07-8.23285E-06 1.17301E-07 2.52105E-08
 -1       529 1.67665E-06-7.00628E-06 1.51792E-06-2.30361E-06-1.35773E-07 1.14812E-07
 -1       530 2.13553E-06-1.06466E-05 2.42579E-06-2.78251E-06-1.13608E-07 1.67637E-08
 -1       531 2.71639E-06-1.35972E-05 2.93208E-06-3.04997E-06-1.16568E-07-9.90548E-08
 -1       532 3.21334E-06-1.69907E-05 3.88923E-06-4.50844E-06-2.22003E-07-1.49430E-07
 -1       533 3.91448E-06-2.28040E-05 5.23913E-06-5.66800E-06-6.32335E-08-1.50542E-07
 -1       534 1.25312E-06-1.23497E-05 3.13070E-06-7.95964E-06-1.39673E-07-1.28986E-07
 -1       535 2.71906E-06-2.45431E-05 6.15206E-06-8.88972E-06 7.27534E-08-4.79988E-07
 -1       536 3.97102E-06-3.69706E-05 1.00787E-05-1.70975E-05 1.86884E-06-7.21346E-07
 -1       537-1.61980E-06-1.76275E-05 5.25837E-06-1.43197E-05-9.07910E-08-1.35008E-07
 -1       538-4.93718E-06-2.23489E-05 1.61015E-05-1.54595E-05 5.37309E-06 2.16896E-06
 -1       539-3.40713E-05-3.78846E-05 1.31645E-05-5.07296E-05-5.06652E-07-2.44670E-06
 -1       540-1.55203E-05-1.58176E-05 8.35905E-06-2.39669E-05 3.88774E-08 3.22953E-07
 -1       541-5.08780E-05-1.09704E-05 1.27903E-05-2.44088E-05 1.46333E-06-1.37549E-06
 -1       542-2.42789E-05-9.53932E-06 9.07447E-06-1.13176E-05 5.48028E-07-1.35563E-06
 -1       543-2.50509E-05-1.77221E-06 1.33461E-05-1.12186E-05 1.67023E-06 3.11501E-06
 -1       544-1.32924E-05-6.02030E-06 3.16382E-06-6.62909E-06-4.33998E-07-1.87530E-06
 -1       545-4.75357E-06-4.74865E-06 3.28185E-06-3.86723E-06-7.35031E-07 1.97810E-07
 -1       546-2.02128E-05 6.89470E-07 6.34943E-06-2.04593E-06-6.38534E-07 6.08950E-07
 -1       547 9.27220E-08-2.86188E-06 2.29047E-07-1.39801E-06-4.09954E-08-3.06084E-07
 -1       548 2.42768E-06 3.79205E-07-9.80615E-07 1.45191E-06 3.71102E-08 5.06872E-07
 -1       549 2.71036E-06 8.38839E-06-1.43890E-06 3.66314E-06 1.56632E-06 5.17317E-07
 -1       550 3.19739E-06 1.79065E-05-5.51252E-06 6.48315E-06 1.24387E-06 2.87486E-07
 -1       551 3.33434E-06 3.99739E-05-8.42531E-06 1.15392E-05 2.41084E-06 1.48686E-07
 -1       552-2.48638E-06 1.31913E-05-3.40386E-06 2.81872E-07-6.15212E-07 5.04667E-07
 -1       553 1.71310E-05 4.63187E-05-9.13526E-06 4.31868E-05 2.02287E-06-3.78489E-07
 -1       554 5.20256E-06 6.07161E-06-1.42571E-05 9.95774E-06-5.94263E-07-1.59212E-06
 -1       555-5.13675E-06 2.55452E-05-1.08681E-05 7.00889E-06-3.49560E-06-1.83494E-06
 -1       556 2.64177E-05-1.27706E-06-6.31207E-06 1.47088E-05 1.86060E-06 9.03570E-07
 -1       557 1.33264E-05-8.02830E-07-2.70326E-06 8.69556E-06 2.24840E-08 2.17627E-07
 -1       558 3.91954E-06 2.00899E-05-6.75344E-06 2.67880E-05-1.96996E-07 1.25490E-06
 -1       559 7.95576E-06-9.63727E-07-1.96346E-06 3.08833E-06 1.70439E-07 1.17005E-07
 -1       560 2.83862E-06-2.58057E-07-6.46490E-07 2.34796E-06 4.63025E-09 5.12068E-08
 -1       561 7.36663E-06 1.84455E-06-2.73804E-06 1.09589E-05 5.35057E-09-2.39593E-07
 -1       562 1.38001E-06 4.61482E-08-3.46676E-07 9.56871E-07 5.14039E-08 2.49633E-08
 -1       563 4.40155E-07 1.39970E-07-1.59450E-07 6.59124E-07 2.19542E-08-1.36397E-08
 -1       564 2.40579E-06 4.01332E-07-7.80767E-07 3.31390E-06 2.83583E-08-2.14384E-08
 -1       565-2.20150E-08 1.36941E-07-1.75773E-08 1.09678E-07 1.42185E-08 1.24565E-08
 -1       566-1.53202E-08 1.15816E-07-6.43833E-09 1.06554E-08-6.54945E-09-1.86813E-08
 -1       567 6.19839E-07 3.29574E-07-2.53363E-07 8.63549E-07-9.32428E-10-1.01649E-08
 -1       568-1.52374E-07 8.86120E-08 6.88594E-09-1.68273E-07-1.08137E-08-8.29957E-09
 -1       569-1.02798E-08 6.36375E-08-1.08867E-08-1.80929E-07-6.81502E-09-1.03143E-08
 -1       570 4.50156E-08 9.41749E-09-1.47080E-08-2.48785E-07-2.36719E-08-4.56205E-09
 -1       571 1.79958E-07 1.47704E-07-1.02458E-07-9.26427E-09-1.36789E-08-7.99209E-09
 -1       572-4.96630E-07 1.34117E-06-2.29423E-07-1.46470E-07-2.07711E-08 1.00915E-08
 -1       573-4.74450E-07 1.15343E-06-2.01632E-07-3.15820E-07-1.85534E-08 2.45678E-09
 -1       574-1.89742E-07 8.82899E-07-2.10690E-07-7.34774E-07 1.06326E-08-9.92371E-09
 -1       575 1.41161E-08 6.00195E-07-1.68228E-07-6.28258E-07 3.86780E-08-5.63495E-08
 -1       576-8.84702E-07 2.71196E-06-4.92000E-07-9.00047E-07-3.99070E-08 1.98380E-08
 -1       577 1.70770E-07-2.41157E-07 1.09187E-08 8.10005E-08-2.57621E-08 3.57524E-08
 -1       578 6.23665E-07 2.20807E-07-1.65535E-07-7.76063E-07-3.90422E-08 9.76244E-08
 -1       579 2.59284E-06 6.43267E-07-1.13628E-06-2.76753E-06-1.01326E-07-2.84670E-07
 -1       580 4.06352E-06 1.52678E-05-5.47049E-06-9.37224E-06 3.44608E-07 1.05022E-07
 -1       581 7.51422E-07 1.71146E-05-5.14736E-06-5.99248E-06 1.93710E-07 3.47594E-07
 -1       582 3.32627E-06 4.07613E-06-2.20287E-06-5.89484E-06 2.69436E-07-5.62511E-07
 -1       583 4.93995E-06 1.20316E-05-4.14576E-06-1.12953E-05 3.81563E-07-1.38801E-07
 -1       584-2.23606E-06-3.73370E-06 1.48239E-06-3.10003E-06-3.24192E-07-7.19477E-07
 -1       585 1.67409E-06-1.51130E-06 3.14177E-07 1.19483E-06 1.78360E-07 5.19685E-07
 -1       586 1.90669E-06 3.27300E-06-1.42503E-06-4.61183E-06-3.48913E-08-1.91311E-07
 -1       587-1.38925E-06 7.85431E-06-2.00299E-06-5.87115E-06-2.78898E-07 3.83172E-07
 -1       588 2.84592E-07 3.48915E-06-9.12575E-07-3.59380E-06-6.73668E-08 1.17772E-07
 -1       589 3.65648E-07 7.80988E-07-3.22114E-07-7.32364E-07-1.58525E-08 3.47643E-08
 -1       590-2.04291E-08 5.71724E-07-1.61982E-07 2.00797E-07-5.71541E-09-3.51383E-09
 -1       591-1.94515E-07 8.85154E-07-2.09661E-07 3.07072E-07 7.08546E-09 1.20466E-09
 -1       592-7.38616E-07 2.40562E-06-4.55433E-07 5.15018E-07 1.09033E-08-1.38425E-09
 -1       593 7.50683E-07 1.46866E-05-4.44212E-06-6.91328E-06 2.65221E-07 3.58757E-07
 -1       594-1.63275E-07 1.27350E-05-3.56461E-06-3.04350E-06 2.34006E-07 1.55125E-07
 -1       595-2.16127E-06 1.29612E-05-3.13802E-06-4.87859E-06-1.12227E-07 2.08189E-07
 -1       596 3.16717E-06 9.92777E-06-3.63904E-06-7.87859E-06 2.61501E-09 2.82588E-07
 -1       597-2.91635E-06 2.31583E-06 2.35822E-07-7.83164E-06-7.76901E-08-2.49221E-07
 -1       598-5.21948E-07 2.83303E-06-6.82483E-07-9.07579E-06-4.89382E-08-5.93328E-08
 -1       599 5.47783E-07 3.81036E-06-1.29554E-06-8.88364E-06 4.08726E-08-6.56245E-08
 -1       600 4.46789E-07 2.49022E-06-7.26899E-07-1.11932E-05 1.39182E-07-6.18280E-08
 -1       601 1.10612E-06 5.64886E-06-1.94204E-06-9.41635E-06 4.42458E-08-5.50593E-08
 -1       602 1.35017E-06-5.96731E-06 1.20867E-06-5.49561E-06-1.17081E-07 6.70015E-08
 -1       603 3.56436E-07-1.00226E-06 3.01391E-07-1.26676E-05 7.17351E-08 2.29487E-08
 -1       604 1.10465E-06-2.18739E-06 2.58871E-07-1.09556E-05 3.93214E-08 4.44422E-09
 -1       605 1.20499E-06-4.69430E-06 9.99926E-07-8.03721E-06 8.10907E-08-5.01195E-09
 -1       606-4.20299E-06-7.59898E-06 3.46879E-06-1.21920E-05 4.06157E-09-5.29998E-08
 -1       607-7.95076E-06-8.09365E-06 4.55392E-06-1.61435E-05 2.41220E-07 1.47474E-07
 -1       608-1.25788E-05-4.99704E-06 5.08631E-06-1.66348E-05 1.82006E-07 2.53687E-07
 -1       609-1.97616E-05-7.02724E-07 5.93604E-06-1.81853E-05 2.14858E-07 3.06018E-07
 -1       610-1.35066E-05 2.22595E-06 3.03597E-06-1.30903E-05 4.12730E-08 1.60243E-07
 -1       611-2.55364E-05 3.98826E-06 6.29254E-06-1.68791E-05 2.10607E-07 3.23778E-07
 -1       612-2.95237E-05 9.93359E-06 5.68093E-06-7.61340E-06-4.22259E-07 6.85083E-07
 -1       613-2.11589E-05 9.10516E-06 3.31269E-06-1.04110E-05 1.89598E-08 8.72612E-08
 -1       614-2.50255E-05 1.03312E-05 4.50703E-06-3.50098E-06-3.64347E-07 4.18507E-07
 -1       615-1.55862E-05 9.02817E-06 1.92742E-06 1.93571E-07-2.49419E-07 4.55907E-08
 -1       616-2.25884E-05 1.58674E-05 1.74321E-06-2.43806E-06-4.41999E-08 5.63295E-09
 -1       617-1.04687E-06 9.66597E-07 2.72840E-07-5.31057E-07-2.78704E-07 6.74561E-07
 -1       618-1.10125E-05 2.50815E-05-3.86429E-06 4.66591E-06-2.33706E-07 2.16949E-07
 -1       619-1.10428E-05 2.83554E-05-5.49420E-06 1.43900E-05-1.21235E-06 3.33844E-08
 -1       620-6.43420E-06 2.32636E-05-5.46616E-06 1.78141E-05-1.04122E-06-1.13681E-06
 -1       621-8.62992E-07 1.41639E-05-3.49853E-06 1.79462E-05-9.69323E-08-1.72686E-07
 -1       622-1.25841E-05 2.22361E-05-2.85434E-06 1.21789E-05-2.92274E-07 4.44891E-08
 -1       623 4.25360E-06 5.78754E-06-2.98146E-06 1.35357E-05 1.21503E-07-1.71097E-07
 -1       624 1.77919E-06 3.14845E-06-1.40943E-06 7.46356E-06 7.36370E-08 2.82234E-08
 -1       625-3.37002E-06 1.23881E-05-2.46108E-06 1.38269E-05-4.91702E-08-8.09598E-08
 -1       626 2.08766E-06 1.83707E-06-1.07116E-06 4.84096E-06 1.63360E-08-2.05910E-08
 -1       627 7.28315E-07 1.48672E-06-6.47432E-07 2.72908E-06 4.34517E-08 3.23245E-08
 -1       628 1.17075E-08 4.50197E-06-1.28054E-06 6.75552E-06-1.41200E-08 3.45064E-08
 -1       629 2.05867E-06 8.02606E-06-3.02468E-06-5.88295E-06 1.15667E-08 3.15870E-07
 -1       630 2.33216E-06 6.87876E-06-2.54993E-06-8.15943E-06 1.97868E-09-1.24251E-07
 -1       631 2.43460E-06 4.02309E-06-1.75552E-06-9.21929E-06 2.01425E-08 6.74553E-09
 -1       632 3.30109E-07-5.63087E-06 1.47308E-06-9.56667E-06 2.86539E-08 6.41807E-09
 -1       633 1.26944E-06 5.19494E-07-5.92835E-07-1.21099E-05-9.00753E-08-6.60690E-08
 -1       634 8.13855E-07 1.08059E-07-2.90530E-07-1.22108E-05-1.02706E-07 5.25835E-09
 -1       635-3.45948E-06 8.63937E-06-1.34123E-06-3.79808E-06-9.02251E-08 3.43462E-08
 -1       636-3.90554E-06 1.17793E-05-2.29086E-06-5.26485E-06-1.89215E-07 6.21320E-08
 -1       637-5.20649E-07-5.88242E-06 1.86748E-06-9.60252E-06 3.77373E-08-5.41961E-08
 -1       638-1.48042E-06-8.34184E-06 2.67991E-06-1.14749E-05 3.37035E-08 1.85043E-08
 -1       639-4.59870E-06 1.32047E-05-2.51125E-06-2.85952E-06-2.95131E-08-7.38756E-09
 -1       640-4.78920E-06-2.17232E-06 2.73197E-06-1.01713E-06-8.08531E-07 1.38665E-07
 -1       641-1.05158E-05 1.16324E-05-3.44921E-07 6.94517E-07-2.01669E-07 1.27401E-07
 -1       642-1.25387E-05 2.00344E-05-2.17467E-06 2.53062E-06-3.25899E-07 9.56027E-08
 -1       643-1.75013E-07 2.15813E-06-5.68839E-07 2.45825E-06-1.75882E-09 7.92550E-09
 -1       644 4.95915E-07 1.08291E-06-4.18014E-07 1.47981E-06-1.65777E-08 2.35816E-08
 -1       645 3.75559E-07 9.74537E-06-2.93574E-06-4.36987E-06 4.93417E-08 1.04464E-07
 -1       646 3.86108E-08 7.26801E-06-2.03403E-06-5.75011E-06 2.21305E-08-3.19879E-08
 -1       647-1.83437E-06 1.06552E-05-2.46423E-06-3.06692E-06 7.79938E-08 1.36147E-07
 -1       648 1.30303E-07 9.05712E-07-2.93992E-07 6.64289E-07-2.12385E-08 1.13839E-08
 -1       649 5.06080E-08 7.38422E-07-2.49816E-07 3.75996E-07 1.12851E-08 6.41251E-09
 -1       650-2.78379E-06 5.40823E-06-7.52100E-07-3.83132E-07 2.85752E-08-1.67314E-09
 -1       651-2.36297E-06 5.16511E-06-8.10691E-07-1.35581E-06 3.21152E-08 7.06459E-09
 -1       652-3.25444E-06 7.38355E-06-1.09910E-06-2.42065E-06-6.18602E-08-2.52037E-08
 -1       653-1.00336E-06 3.74382E-06-7.93080E-07-2.74949E-06-8.75598E-09-1.06172E-09
 -1       654-1.60921E-06 4.00090E-06-6.66226E-07 2.18525E-06-2.88142E-08-7.79736E-09
 -1       655-2.45434E-06 4.76356E-06-6.91509E-07 1.29306E-06-6.13463E-09-2.07665E-08
 -1       656-1.38221E-06-2.26478E-06 1.00986E-06-1.19411E-05 2.34527E-08-3.52923E-08
 -1       657-5.88092E-06-1.68242E-06 2.10415E-06-1.25281E-05 2.48985E-08-2.15811E-08
 -1       658-1.85544E-06 5.04357E-06-9.05346E-07 3.90295E-06-6.23676E-09-6.09942E-08
 -1       659-4.16897E-06 7.61142E-06-9.78988E-07 1.48074E-06-3.61641E-08-3.15202E-08
 -1       660 5.02516E-07 1.78876E-06-6.17682E-07-2.11149E-06 3.57327E-08-3.47714E-08
 -1       661-1.12828E-05 5.61436E-06 1.56814E-06-9.12387E-06 8.67114E-08 1.35684E-07
 -1       662-1.46679E-05 8.89755E-06 1.73772E-06-8.06504E-06-1.31044E-07 2.92311E-08
 -1       663-5.47936E-06 9.92090E-06-1.28718E-06-1.71744E-06 7.65906E-09 2.57423E-08
 -1       664-2.41953E-06 6.58328E-06-1.17484E-06 6.49652E-06-4.19880E-08-6.66800E-08
 -1       665-6.66907E-06 1.26044E-05-1.61015E-06-1.75567E-06 3.51051E-08 1.04437E-08
 -1       666-5.47275E-06 1.26653E-05-2.12612E-06-2.07460E-06 7.07171E-09-9.26774E-08
 -1       667-1.72891E-05 1.16675E-05 1.64739E-06-5.98763E-06-1.21365E-07-1.10621E-07
 -1       668-2.01334E-05 1.50653E-05 1.62449E-06-3.15197E-06 6.14463E-08-7.38863E-08
 -1       669-1.42442E-05 1.30613E-05 3.09253E-07-2.36064E-06-5.76514E-08-3.98125E-09
 -1       670-1.78940E-05 2.14290E-05-1.00276E-06 3.96422E-06-2.70397E-07 1.22297E-08
 -1       671-1.10059E-05 1.66380E-05-1.85632E-06 1.01377E-05-6.49070E-08-6.87719E-08
 -1       672-6.87923E-06 1.15786E-05-1.30320E-06 8.54771E-06 2.24580E-07 1.94035E-07
 -1       673-5.26566E-06 9.06225E-06-9.83427E-07 2.90707E-06 7.53875E-08 1.05399E-07
 -1       674-5.82092E-06 9.57912E-06-1.00864E-06 5.75248E-07 4.65966E-08-4.27370E-08
 -1       675-6.73078E-06 1.12534E-05-1.33652E-06-8.26411E-07 2.04966E-08-1.21963E-07
 -1       676-7.38045E-06 1.12142E-05-1.00310E-06 5.15084E-06 1.88543E-07 8.34321E-08
 -1       677-2.04532E-05 1.95945E-05 1.68595E-07 3.22942E-06-2.86923E-07 5.97304E-08
 -1       678-1.79592E-05 2.21250E-05-1.28234E-06 6.06063E-06-2.21448E-07 1.49440E-07
 -1       679-1.50161E-05 2.08110E-05-1.56461E-06 9.77167E-06-1.02280E-07 4.15148E-08
 -1       680-2.28968E-05 1.79190E-05 1.35065E-06-1.16824E-06-5.42332E-08 4.62071E-08
 -1       681-4.84794E-06 9.77881E-07 1.20707E-06-8.00029E-07-8.58629E-08 3.12869E-07
 -1       682-7.54815E-06 4.11712E-06 9.90401E-07-9.03570E-06-1.12685E-08 3.04161E-09
 -1       683-9.56105E-06 1.30317E-05-1.00161E-06 3.64752E-06 3.45906E-08-6.05497E-09
 -1       684 3.23833E-07 3.12797E-06-8.63716E-07-9.88127E-06-1.14781E-07 7.39948E-08
 -1       685-1.32722E-06 4.07930E-07 1.96187E-07-1.08885E-05 1.48881E-07 3.25760E-08
 -1       686-4.94057E-06 1.09016E-05-1.68726E-06-2.40494E-06-3.93634E-08-5.54188E-08
 -1       687-7.97293E-06 1.22768E-05-1.23975E-06 2.08266E-07-1.28119E-07-1.89979E-07
 -1       688-1.78566E-05 1.76806E-05-1.42204E-07 2.07552E-06 7.39136E-09-7.12725E-08
 -1       689-1.58722E-05 1.81749E-05-6.72444E-07 5.87816E-06 3.52258E-08 7.75808E-08
 -1       690-3.03830E-06 7.88943E-07 5.37823E-07-1.06078E-05 4.39499E-08 3.19765E-08
 -1       691-7.34221E-06 7.19549E-06 6.33682E-08-6.50288E-06 3.63578E-09 4.29200E-08
 -1       692-5.32734E-07 4.58061E-06-1.15368E-06-7.91763E-06-6.53499E-08-7.46769E-09
 -1       693-2.17067E-06 6.19961E-06-1.18614E-06-6.20650E-06-3.03206E-08-3.30202E-08
 -1       694-6.84226E-06 9.32489E-06-7.34870E-07-4.20731E-06 2.06066E-08 3.62360E-08
 -1       695-9.64129E-06 1.11538E-05-4.33372E-07-2.60807E-06 1.01028E-08-3.90728E-09
 -1       696-1.02114E-05 1.31797E-05-8.70358E-07 1.65893E-06 7.19599E-08-5.53081E-10
 -1       697-1.43913E-05 1.52121E-05-1.62838E-07 2.60652E-06 1.06554E-07 2.15591E-09
 -1       698-1.17797E-05 1.35592E-05-4.46130E-07-6.42611E-07 9.34335E-08-1.84308E-08
 -1       699 3.30384E-06 2.70884E-05-7.04908E-06-1.66514E-05 9.38756E-07-7.79454E-07
 -1       700 3.33315E-06 2.71367E-05-7.00872E-06-1.66772E-05-8.37288E-07 7.11871E-07
 -1       701 1.19632E-05 3.78818E-06-4.11532E-06-1.07527E-05 3.40366E-07-1.33202E-07
 -1       702 1.20158E-05 3.83792E-06-4.19057E-06-1.08106E-05-2.92306E-07 1.51366E-07
 -1       703 8.24260E-06 1.50280E-05-4.93892E-06-1.56434E-05 2.19662E-08-2.95280E-08
 -1       704-1.08245E-07-6.36876E-09 7.45371E-08 1.21392E-07 8.69308E-09 3.41709E-08
 -1       705-6.48011E-08-5.78833E-08 8.56330E-08 1.41523E-07 1.83620E-08-4.33915E-08
 -1       706 4.91602E-07 2.02098E-08-6.84668E-07-1.40366E-07 3.63681E-08 1.52483E-07
 -1       707-2.29746E-08-3.70033E-08-4.96744E-07 3.28432E-07-2.93945E-08-1.35563E-07
 -1       708-3.69919E-07-3.35861E-08 6.77202E-08 2.96446E-07-7.02076E-09-7.53803E-08
 -1       709-5.09672E-07-5.36099E-08 8.75969E-08 2.69662E-07 2.99685E-08 1.08297E-08
 -1       710-2.17104E-07-1.07791E-07 1.04972E-07 2.01277E-07-4.36980E-09-3.56269E-08
 -1       711 6.52910E-08 4.01933E-08-5.12035E-07 1.29687E-07-5.13228E-08 8.64038E-08
 -1       712-5.84724E-07-1.33785E-07 7.04260E-08 5.07494E-07 1.38054E-09 2.41176E-08
 -1       713-1.29590E-08-9.47073E-09 4.44799E-08-2.05541E-07 1.32845E-09 2.66710E-09
 -1       714 3.14365E-08-4.17520E-07 1.36723E-07 5.94636E-08 3.59018E-08-1.49306E-08
 -1       715 1.57401E-08-3.83564E-07 1.22624E-07-4.50601E-11-1.87502E-08 2.48064E-08
 -1       716-3.97944E-08-2.99086E-09 3.16819E-08-2.28146E-07-1.64808E-08 9.36836E-09
 -1       717-8.42906E-09 4.51070E-08-4.33385E-09-1.53853E-07 1.40532E-08-1.08290E-08
 -1       718 6.77700E-08-2.18261E-07 3.40897E-08-1.87583E-07 1.15147E-08-5.18031E-11
 -1       719 1.03964E-07-3.19396E-08-2.49310E-11-2.62301E-07 1.72814E-08-1.62154E-08
 -1       720 3.41016E-08 1.35065E-07-3.31993E-08-2.00915E-07 1.04881E-08 1.03261E-08
 -1       721 1.79278E-07-7.06225E-07 1.44532E-07-4.45533E-08-3.64446E-10-3.77159E-08
 -1       722 3.29913E-09-4.96528E-07 1.32579E-07 5.46578E-09 5.17236E-09-3.55078E-09
 -1       723 2.07126E-07-7.12792E-07 1.29573E-07-6.45325E-08 1.11804E-08 4.29254E-08
 -1       724 1.61001E-07-6.18334E-07 1.16990E-07-2.04584E-07 1.40477E-10-3.67115E-09
 -1       725 1.22975E-07-3.11016E-07 5.11718E-08-2.71258E-07 6.46354E-09-6.10057E-09
 -1       726 2.37346E-08-1.37893E-07 3.84080E-08-2.76633E-07-8.74291E-09-6.55948E-09
 -1       727 1.97389E-07-5.12688E-07 7.84526E-08-2.40254E-07-7.83085E-09-1.96948E-09
 -1       728 7.43215E-05-3.10066E-06-1.11280E-05 3.31572E-05-5.23448E-07-2.31302E-06
 -1       729 7.53317E-05-1.61693E-06-1.13854E-05 3.53875E-05-1.91503E-06-1.62201E-06
 -1       730 8.21626E-05-1.46780E-05-1.17339E-05 2.29613E-05-6.23984E-07-1.54666E-06
 -1       731 2.39606E-05-7.04036E-06-7.51115E-06-1.11539E-06-6.67164E-07 3.27490E-06
 -1       732 3.55587E-05-1.49108E-05-8.83617E-06 9.08588E-07 1.37256E-06-3.22445E-06
 -1       733-2.40002E-07 2.97229E-08 7.40251E-08-1.07504E-07-1.94534E-09 3.75034E-08
 -1       734-2.66421E-07 7.12205E-08 5.96442E-08-3.57644E-08-5.37870E-09-4.34522E-08
 -1       735-2.46098E-07 4.85065E-08 8.16670E-08-1.07749E-07 5.92153E-09-6.99971E-09
 -1       736-4.80798E-07 5.27988E-08 1.22003E-07-1.46578E-07 9.78823E-09 3.74954E-08
 -1       737-4.50276E-07 4.69056E-08 1.01475E-07-9.61540E-08-3.96193E-09-4.19205E-08
 -1       738 1.62663E-05-4.18444E-06-4.49483E-06 8.75779E-07-3.23162E-07-1.07274E-06
 -1       739 3.09799E-06-8.36219E-07-7.22760E-07 1.02745E-07-3.42837E-08-1.43750E-07
 -1       740 7.39708E-06-1.93194E-06-1.96393E-06 3.48272E-07 3.00780E-08-3.35423E-07
 -1       741-7.16966E-07 4.65480E-08 1.59070E-07-1.74224E-07-7.74460E-10 1.97449E-08
 -1       742-1.89073E-07-5.84626E-08 2.50412E-10-3.57103E-08 1.57533E-08 8.48463E-08
 -1       743-6.42391E-07 7.11234E-08 1.29229E-07-1.15827E-07 3.15588E-09 4.16341E-08
 -1       744 1.44924E-05-2.93230E-06-4.44181E-06 1.79561E-06 6.07279E-08 8.26201E-07
 -1       745-7.15352E-07 7.05883E-08 1.58067E-07-1.71349E-07-2.79575E-09-5.08797E-08
 -1       746 6.95247E-07-3.67124E-07-1.89022E-07-2.52470E-07 7.91103E-09 1.18666E-07
 -1       747 1.90765E-07-1.75839E-06 3.20674E-08 3.13805E-07-1.76757E-07 1.38742E-07
 -1       748-7.59795E-12-1.58776E-06-2.06534E-12 9.88150E-07 7.10439E-08 1.35372E-13
 -1       749 2.81622E-07 3.25001E-05-1.42545E-06 1.09563E-05 2.88604E-06 3.99163E-07
 -1       750 3.01014E-06 3.34000E-05-1.56576E-06 1.45181E-05-3.97065E-06 9.85039E-07
 -1       751-6.89919E-12-3.41135E-07-1.21530E-12 1.81736E-06-4.31891E-08 4.97577E-13
 -1       752-1.99831E-11 1.64517E-05 1.85452E-11 8.85988E-06-1.10291E-06 2.75959E-13
 -1       753 3.70118E-07 1.00186E-05-1.92430E-07 5.95001E-06 1.49180E-06-4.23410E-08
 -1       754 4.81505E-07 1.95968E-06-1.87519E-07 3.13875E-06 1.07811E-07 4.05201E-09
 -1       755 1.08505E-06 7.84771E-07-1.00503E-07 3.20726E-06-4.72927E-07 5.13478E-07
 -1       756-2.07832E-11 1.05529E-05 1.55443E-11 8.18358E-06-2.70813E-06 6.66288E-13
 -1       757-4.20653E-05-4.14542E-07 2.28023E-06-2.27866E-05-6.64791E-07-3.70224E-06
 -1       758-4.28158E-05 7.19769E-11-5.18685E-11-2.30220E-05-1.59413E-13 5.67090E-06
 -1       759-1.12005E-06-2.81691E-07 7.19029E-08-1.83313E-06-1.61921E-07-3.35637E-07
 -1       760-1.88271E-06 1.74106E-11-3.40429E-12-2.71323E-06-7.81838E-13 5.24481E-07
 -1       761-2.18786E-05 4.46386E-11-3.47448E-11-1.73118E-05-2.78831E-12 1.61173E-06
 -1       762-3.94998E-06 1.59319E-11-4.01728E-12-4.26847E-06-7.39399E-13 4.97900E-07
 -1       763-6.31951E-06-1.91377E-06 4.77999E-07-6.32756E-06 1.95702E-07-5.30287E-07
 -1       764-1.43181E-05-1.20033E-06 2.11624E-07-1.20368E-05-1.94728E-07-1.94196E-06
 -1       765-1.50688E-05-2.28366E-06-8.93093E-08-1.31899E-05 1.15381E-06 4.20021E-06
 -1       766-6.56345E-06-1.36592E-06 6.99315E-07-6.31658E-06-3.69917E-07 1.35979E-06
 -1       767 2.61211E-06-7.80739E-06 1.08221E-06-1.39967E-06 3.57388E-07-3.67226E-08
 -1       768 2.32132E-06-6.82172E-06 8.99879E-07-1.49179E-06 1.16098E-07-9.67480E-08
 -1       769 1.13443E-06-7.49886E-06 1.10759E-06-6.46121E-08-9.15757E-08-1.43521E-07
 -1       770 6.22519E-07-9.08289E-06 1.93818E-06 1.15940E-06 7.23790E-08-1.87385E-07
 -1       771 2.13449E-06-1.03998E-05 1.87073E-06 1.36786E-06-2.34527E-07 1.82103E-07
 -1       772 5.65975E-06-1.08150E-04 1.62655E-05-4.42174E-05 4.98843E-07 7.96248E-07
 -1       773 1.59209E-05-1.05891E-04 1.47566E-05-3.07173E-05-3.10456E-06-6.26849E-07
 -1       774 2.15580E-06-1.11337E-05 2.25134E-06 7.97727E-07-6.39005E-08 7.10638E-08
 -1       775 3.72155E-06-1.62720E-05 3.60463E-06 2.00046E-07 1.50509E-07 2.79151E-08
 -1       776 3.08054E-06-1.37215E-05 3.06738E-06 1.52160E-07 8.22086E-08-4.53755E-09
 -1       777 6.57989E-06-2.53378E-05 5.83455E-06 1.10495E-06 4.13280E-07-4.08843E-09
 -1       778 4.39379E-06-1.96628E-05 4.52647E-06 4.89490E-07 2.87880E-07 7.51213E-08
 -1       779 1.73365E-05-5.75132E-05 1.41432E-05 3.46156E-07-1.70569E-06 4.78883E-08
 -1       780 2.52311E-06-1.13573E-05 2.34044E-06 4.90995E-07 1.15573E-07-7.16886E-08
 -1       781 2.61592E-06-1.20179E-05 2.65792E-06 2.83462E-07 1.29856E-07 2.26300E-09
 -1       782 7.51849E-06-3.36254E-05 8.94661E-06 1.12917E-06-6.41909E-07 1.97995E-07
 -1       783-7.67996E-06 1.21130E-06 1.48780E-06-8.24860E-06 1.14669E-07 1.16056E-07
 -1       784-8.66758E-06 2.40935E-06 1.40854E-06-7.04698E-06-2.01307E-07-2.64360E-07
 -1       785 7.66974E-06-1.59541E-06-1.31028E-06-7.77809E-06 1.66906E-09 2.53775E-07
 -1       786-8.36827E-06 1.44912E-06 1.41994E-06-8.52443E-06-5.54512E-08-3.51456E-07
 -1       787-8.68315E-06 1.56486E-06 1.81707E-06-9.27511E-06 3.36302E-07 1.79217E-07
 -1       788-7.67646E-06 1.53829E-06 1.41990E-06-8.80978E-06 8.67714E-08 3.28701E-07
 -1       789-8.79506E-06 2.55845E-07 2.07084E-06-1.04461E-05-1.25855E-07 1.00771E-07
 -1       790-6.72498E-06 9.28777E-07 1.31492E-06-9.51540E-06-7.26131E-08-1.83996E-07
 -1       791 2.96142E-06-5.83367E-07-6.33139E-07-8.80625E-06 9.57094E-08 7.24251E-08
 -1       792-1.39382E-06 3.43763E-07 2.48659E-07-8.63642E-06-4.64980E-08 6.83490E-08
 -1       793 9.60196E-06-2.32380E-06-2.00887E-06-8.95166E-06 1.02093E-07-4.46354E-08
 -1       794 6.52726E-06-1.20586E-06-1.42863E-06-9.10508E-06-7.81957E-08-1.09562E-08
 -1       795 9.74588E-06-2.28807E-06-1.67677E-06-7.71936E-06-8.48155E-08 2.56705E-07
 -1       796-4.57336E-06 1.00447E-06 9.40302E-07-8.85515E-06 7.44137E-08 7.82665E-08
 -1       797 1.14661E-05-2.04075E-06-2.22838E-06-9.30555E-06-8.94330E-08-1.80652E-07
 -1       798-4.07175E-06 2.06729E-05-4.94051E-06-1.55009E-06-4.55994E-07 1.28387E-08
 -1       799-1.75787E-06 7.04100E-06-1.30683E-06-4.19470E-07-2.08279E-07-1.34052E-07
 -1       800-2.06533E-06 7.55208E-06-1.19274E-06-4.59980E-07 6.50976E-08-1.07925E-07
 -1       801-2.13192E-06 6.90909E-06-9.55173E-07-1.13544E-06 1.10288E-07 2.09639E-07
 -1       802-9.27668E-07 9.61675E-06-2.10076E-06 1.05842E-06-2.70736E-08 2.86404E-07
 -1       803-2.42977E-06 1.19855E-05-2.61017E-06 8.92398E-07-2.73345E-07-1.40032E-07
 -1       804-2.98063E-06 1.31812E-05-2.81765E-06 4.48496E-07 1.25051E-07 2.34139E-07
 -1       805-4.16683E-06 2.01973E-05-4.80066E-06-1.42902E-06 6.41517E-07-1.62710E-07
 -1       806-3.20367E-06 1.35770E-05-3.19591E-06 4.15335E-07 1.53497E-08-1.04941E-08
 -1       807-3.31130E-06 1.37947E-05-3.15403E-06 4.64883E-07-1.38819E-07-2.05012E-08
 -1       808-4.21905E-06 2.14342E-05-5.01221E-06-2.02764E-06 9.31990E-08-6.58712E-08
 -1       809-3.39494E-06 1.50057E-05-3.66672E-06 1.06925E-07-1.61731E-07 1.62863E-08
 -1       810 5.63040E-06-1.73595E-06-9.96144E-07-8.33797E-06 4.57003E-08-9.66966E-09
 -1       811 4.94337E-06-1.31090E-06-8.85046E-07-7.47638E-06-1.70562E-07-7.43011E-08
 -1       812 2.35558E-06-2.08426E-06-7.64758E-08-5.00490E-06 2.34557E-07 4.58811E-08
 -1       813-5.41869E-06 9.16740E-06-1.05834E-06 3.79834E-07 3.17939E-08-1.64050E-08
 -1       814-5.04988E-06 8.59470E-06-1.00884E-06 2.54371E-06-3.14556E-08 3.00159E-08
 -1       815-3.86038E-06 7.15203E-06-9.23680E-07 5.41076E-07 2.29062E-08 1.67651E-09
 -1       816-3.38055E-06 6.53881E-06-9.03218E-07 2.48381E-06-3.46620E-08 2.69412E-08
 -1       817 2.59521E-06-1.83177E-06-1.85476E-07-8.62458E-06 7.58702E-09 1.03394E-07
 -1       818-7.87875E-07 2.66312E-06-5.54831E-07 1.61575E-06-2.34536E-08 2.54487E-08
 -1       819-2.17407E-06 4.91372E-06-7.64669E-07 2.63941E-06 3.09840E-08-2.96259E-08
 -1       820-2.03214E-06 5.17134E-06-9.00493E-07 3.37992E-06-2.87389E-08-6.47375E-08
 -1       821-1.85414E-06 4.12392E-06-6.27766E-07 1.61094E-06-1.95808E-08-1.49194E-08
 -1       822-7.65148E-07 2.40297E-06-4.61220E-07-9.75986E-07 7.03054E-09 3.93024E-09
 -1       823-3.49887E-07 9.65934E-07-1.85804E-07-4.66244E-07-5.64910E-09-1.00646E-08
 -1       824-2.75077E-07 7.98433E-07-1.51285E-07-4.93488E-07 1.31073E-09 2.73233E-09
 -1       825-5.86857E-08 6.85564E-07-1.78051E-07-6.93883E-07-2.07747E-09-1.82648E-08
 -1       826-6.71227E-07 8.41814E-06-2.19916E-06-5.03861E-06 2.00812E-08 1.12166E-08
 -1       827 8.50762E-07 9.76180E-06-2.95803E-06-4.85975E-06-3.94407E-09 2.41953E-08
 -1       828-1.65393E-06 9.71205E-06-2.31219E-06-3.87646E-06 5.34124E-08 4.18043E-08
 -1       829 1.08688E-07 6.34389E-06-1.92143E-06-6.64132E-06-4.16234E-08-2.40039E-08
 -1       830-1.98714E-06 6.81029E-06-1.38839E-06-5.65886E-06-4.38673E-08-5.49361E-08
 -1       831-6.92575E-07 7.80175E-06-1.95924E-06-5.25173E-06-2.12840E-08-8.14254E-08
 -1       832-1.32987E-05 1.64092E-05-8.39727E-07 6.44339E-06 5.96813E-08-1.93577E-08
 -1       833-1.19623E-05 1.81601E-05-1.83607E-06 1.06745E-05-4.35378E-08-5.77866E-08
 -1       834-1.68978E-05 1.91317E-05-6.35476E-07 6.06688E-06-3.79422E-08 2.95974E-08
 -1       835 1.31143E-06 4.43728E-08-3.13517E-07 1.00584E-06 2.91099E-09-6.93999E-10
 -1       836-9.64502E-07 4.28684E-06-9.15521E-07 4.56760E-06-4.83414E-08-2.51310E-08
 -1       837-1.05050E-07 3.63842E-06-9.70571E-07 5.12914E-06-9.07946E-09-2.13508E-08
 -1       838-9.04926E-07 5.00578E-06-1.13555E-06 6.10619E-06-1.42555E-09 2.89127E-08
 -1       839 1.82176E-07 2.78663E-06-7.93533E-07 3.87326E-06 1.45428E-10 6.85594E-08
 -1       840-7.05850E-07 4.10533E-06-9.13754E-07 4.75861E-06-3.08508E-08 7.32892E-08
 -1       841 2.38124E-07 3.46636E-06-1.01203E-06 5.34198E-06-5.95990E-09 6.11752E-08
 -1       842-1.04644E-05 1.40473E-05-9.66514E-07 6.20500E-06-1.91067E-08-2.81698E-08
 -1       843-1.27908E-05 1.42032E-05-4.00939E-07 1.97997E-06-2.48182E-08 3.82839E-08
 -1       844 1.79652E-06-2.22704E-06 1.83718E-07 6.97417E-07 2.21388E-07 8.78757E-08
 -1       845 1.26997E-06-3.02680E-06 4.73792E-07-5.80402E-07 1.07606E-07-8.34247E-08
 -1       846-3.38838E-06 6.56114E-06-8.68561E-07 3.20797E-06-4.29085E-08 2.85484E-08
 -1       847-3.09416E-06 6.61437E-06-1.03166E-06 3.87396E-06-1.50469E-07-1.10739E-07
 -1       848-1.92382E-06 5.06180E-06-8.27489E-07 4.00249E-06-1.05918E-08-4.91312E-08
 -1       849-1.53090E-06 4.94194E-06-9.24360E-07 4.58555E-06-5.28815E-09-3.74406E-08
 -1       850-2.85429E-06 6.70250E-06-1.08887E-06 5.35000E-06-2.28449E-08-4.84455E-08
 -1       851 5.67865E-06-1.78819E-06-1.04188E-06-9.56230E-06 4.47605E-08-9.15841E-09
 -1       852 3.01061E-06-1.52290E-06-4.09126E-07-1.04548E-05 8.91083E-08 4.40655E-08
 -1       853-9.23543E-07 1.00801E-05-2.58819E-06-3.89057E-06-7.04277E-08-1.03673E-08
 -1       854-1.37766E-06 7.06567E-06-1.61022E-06-5.59244E-06 1.02175E-07-1.06994E-08
 -1       855 3.10086E-09 8.19406E-06-2.31818E-06-5.25753E-06 1.90053E-08 2.11631E-08
 -1       856-2.55135E-06 1.05964E-05-2.45291E-06-3.08630E-06-1.40536E-08 4.24209E-10
 -1       857-2.83654E-06 8.22887E-06-1.49415E-06-4.84340E-06 5.31500E-08-2.52453E-08
 -1       858-3.11368E-06 9.79551E-06-1.87548E-06-3.34319E-06 6.50027E-09 2.73048E-08
 -1       859-4.02481E-06-2.16031E-06 1.67398E-06-8.68836E-07 5.92707E-08-2.13508E-07
 -1       860-3.61971E-07-2.47884E-06 8.72784E-07-4.54522E-07-5.48146E-08-4.21864E-08
 -1       861-5.74373E-06-3.55684E-06 1.69421E-06-3.98583E-06 7.54088E-09-1.03278E-07
 -1       862-6.96878E-06-4.71026E-06 3.02709E-06-5.23498E-06 7.37738E-08-3.12891E-07
 -1       863-3.81504E-06-3.30614E-06 1.36564E-06-4.00852E-06 1.09042E-07 4.70407E-07
 -1       864-4.52524E-06 4.02247E-06 1.47603E-07-8.76747E-06-3.82932E-08-3.27340E-08
 -1       865-4.74797E-06 6.79747E-06-5.73636E-07-5.98973E-06-3.38886E-08 4.57208E-09
 -1       866-9.33332E-06 7.39327E-06 5.37205E-07-7.03832E-06-5.48459E-08-1.33430E-08
 -1       867-9.25642E-06 9.99819E-06-2.03959E-07-4.04766E-06-2.13941E-08-3.36694E-08
 -1       868-1.75297E-05 1.13212E-05 1.81568E-06-6.26444E-06 5.07785E-09 2.68559E-08
 -1       869-1.42614E-05 1.19375E-05 6.25350E-07-3.94320E-06 6.46892E-09 7.41534E-08
 -1       870-1.92066E-05 1.66693E-05 7.24373E-07-2.53356E-07 7.14529E-08-7.86511E-08
 -1       871-5.10006E-07 2.60607E-06-6.17031E-07 2.25377E-06 9.91271E-09 5.91387E-08
 -1       872-8.27769E-07 2.35247E-06-4.04129E-07 8.72688E-08 4.52593E-09-2.34701E-08
 -1       873-1.05558E-06 2.60991E-06-4.38975E-07-3.72939E-07-9.06394E-09 9.77581E-09
 -1       874-4.99708E-07 1.29696E-06-2.30839E-07-1.97375E-07-3.86770E-09 5.58694E-09
 -1       875 2.17748E-06 5.73843E-06-2.18638E-06-8.22067E-06 6.95200E-09 7.70172E-08
 -1       876 1.99894E-06 6.73875E-06-2.45311E-06-7.71509E-06 2.52021E-08-3.15115E-08
 -1       877 1.87643E-06 8.19041E-06-2.86966E-06-8.14087E-06-2.97337E-08 1.28496E-07
 -1       878 1.70931E-06 6.65010E-06-2.38474E-06-6.87850E-06-5.08056E-08 6.20932E-08
 -1       879 2.35563E-06 7.69151E-06-2.87733E-06-7.50531E-06-4.19242E-08 3.42159E-08
 -1       880 2.27052E-06 9.15899E-06-3.19842E-06-7.31801E-06-3.80693E-08 5.51056E-08
 -1       881 1.41864E-06-2.08936E-06 1.31500E-07-1.12968E-05-1.44806E-08 6.42351E-09
 -1       882 7.19456E-08-2.71802E-06 7.23900E-07-1.14369E-05-7.13132E-08-1.22668E-08
 -1       883 1.34925E-06-2.28261E-06 2.48999E-07-1.03929E-05 8.33796E-08-3.15521E-08
 -1       884-3.12881E-07 3.16185E-06-8.12056E-07 3.69081E-06-3.03114E-08-1.96426E-08
 -1       885-6.01879E-07 4.06569E-06-9.59584E-07 4.93360E-06-1.13299E-08-2.48047E-08
 -1       886-2.63891E-06 6.13319E-06-1.02077E-06 4.66461E-06-4.60735E-08-7.10752E-08
 -1       887 3.59221E-07 1.35231E-07-1.15698E-07 6.03736E-07 1.67088E-08-8.43628E-09
 -1       888 2.33039E-06 4.62297E-07-7.76492E-07 3.32256E-06-2.44221E-09-1.29791E-08
 -1       889 2.88333E-06-2.46074E-07-7.40633E-07 2.19945E-06-2.80415E-08 1.19465E-08
 -1       890-1.76462E-05 5.61324E-06 3.46067E-06-1.25591E-05-8.35007E-08-1.01742E-07
 -1       891-1.45384E-05 7.43232E-06 2.06186E-06-9.42712E-06-4.92332E-09-7.74865E-08
 -1       892 8.49345E-07 6.39434E-06-2.01441E-06-6.63544E-06-3.21236E-08-7.89733E-08
 -1       893 1.91067E-06 9.45238E-06-3.32900E-06-5.62509E-06 3.81683E-08-1.85239E-07
 -1       894-1.44798E-05 1.42133E-05 6.12758E-08-7.39707E-07-6.59925E-08 4.59301E-08
 -1       895-3.84456E-06 1.27472E-05-2.43563E-06-3.41747E-06 1.20742E-08 2.38565E-08
 -1       896-3.60852E-06 1.17778E-05-2.32360E-06-2.61909E-06-1.09546E-07-3.57057E-08
 -1       897-2.29730E-06 1.35411E-05-3.16219E-06-4.06950E-06-1.09597E-07 1.21030E-07
 -1       898-5.91051E-07 1.16930E-05-3.11551E-06-3.68121E-06 2.02066E-08 6.05797E-09
 -1       899-1.65167E-06 1.27651E-05-3.20326E-06-3.03119E-06-8.28976E-08 4.19385E-08
 -1       900-2.46518E-07 5.24137E-06-1.39293E-06-7.10644E-06 2.23456E-08-1.22843E-07
 -1       901-1.67864E-05 1.82963E-05-5.01645E-07 2.55308E-06-1.37772E-07-6.13399E-08
 -1       902-1.34365E-05 2.39800E-05-3.14255E-06 1.05755E-05 4.85922E-08 1.41836E-07
 -1       903-1.90597E-05 2.06471E-05-6.32010E-07 3.87962E-06 4.36360E-08 1.06380E-07
 -1       904-1.23938E-06 1.15682E-05-3.01275E-06-6.50191E-06 7.58055E-09-3.39137E-07
 -1       905-2.32268E-06 1.35968E-05-3.17351E-06-3.96935E-06 1.31564E-07-8.16806E-08
 -1       906-4.12582E-06 1.18927E-05-2.25179E-06-4.33273E-06 1.08637E-07-1.56790E-07
 -1       907 7.01945E-07 3.08941E-06-1.01743E-06 5.22987E-06 1.13561E-07 1.20585E-07
 -1       908-3.56878E-07 4.69182E-06-1.34944E-06 6.96536E-06 1.97887E-08 4.35613E-08
 -1       909 3.76760E-06-9.45280E-07-8.27018E-07-9.96375E-06-3.01734E-08 2.83830E-08
 -1       910-2.37002E-07 5.66056E-06-1.54148E-06 8.22252E-06-3.67288E-08 7.91456E-08
 -1       911-3.17918E-06 7.70410E-06-1.38840E-06 7.08962E-06-4.22889E-08-9.80300E-08
 -1       912-6.45973E-06 1.08285E-05-1.27361E-06 7.56781E-06 6.30439E-09-1.67422E-07
 -1       913-5.59041E-06 9.88726E-06-1.21558E-06 6.80694E-06-1.48009E-08-3.42188E-07
 -1       914-1.00526E-06 3.10315E-06-5.87241E-07-1.38584E-06 2.56246E-08 1.92944E-08
 -1       915-1.39884E-06 4.26222E-06-7.87854E-07-2.12384E-06-1.48892E-08 1.13430E-08
 -1       916-4.13295E-07 2.44632E-06-5.77047E-07-1.81441E-06 2.58336E-08 4.06244E-09
 -1       917-2.25042E-06 4.46671E-06-6.52843E-07 5.55024E-07 7.36388E-09 3.82571E-09
 -1       918-1.19940E-05 9.86673E-06 5.94235E-07-5.71587E-06-4.92217E-09-9.61617E-08
 -1       919 1.11876E-06 3.64986E-07-4.07801E-07 1.67311E-06-4.82519E-09-3.48836E-08
 -1       920 1.68601E-08 1.14350E-07-3.39760E-08-9.70293E-08-1.06821E-08 1.27603E-08
 -1       921-7.03488E-08 3.47599E-07-7.62161E-08-4.51362E-08 4.81029E-10-4.74255E-09
 -1       922 1.67898E-06 5.18537E-06-1.96708E-06-7.93163E-06-9.58074E-08-1.30150E-09
 -1       923 9.78518E-07 5.37579E-06-1.79959E-06-8.02253E-06-3.53619E-08 3.82853E-09
 -1       924 1.67634E-06-9.84826E-06 2.29833E-06-5.40295E-06-2.71714E-08 5.34575E-09
 -1       925 2.90628E-06-1.38503E-05 3.06002E-06-2.26332E-06 5.71664E-08 8.03531E-09
 -1       926 2.38635E-06-1.11771E-05 2.48358E-06-2.05796E-06 2.09004E-08 7.07913E-09
 -1       927 1.84815E-06-1.31222E-05 3.15618E-06-6.72901E-06-4.59360E-08 9.21268E-08
 -1       928 3.50916E-06-1.73919E-05 3.88226E-06-3.38234E-06 4.41554E-08 1.32285E-07
 -1       929-2.11685E-06 7.29034E-06-1.50851E-06-4.04298E-06-3.42270E-08 8.34825E-08
 -1       930-3.94611E-06 8.85712E-06-1.38366E-06-3.32401E-06-1.09779E-08 1.79296E-08
 -1       931-3.07356E-06 1.02129E-05-2.08583E-06-4.54757E-06 4.20934E-08 2.45053E-08
 -1       932-1.79200E-06 6.83562E-06-1.37238E-06-4.31728E-06-6.29277E-08 9.66841E-08
 -1       933-6.15937E-07 8.77233E-06-2.18961E-06-6.19999E-06-1.07210E-07 2.17456E-07
 -1       934-2.90545E-06 9.88353E-06-1.93115E-06-4.70985E-06-1.49349E-07 1.36434E-07
 -1       935-4.64886E-07 2.47460E-06-5.81821E-07 2.11060E-06-6.31947E-09 7.05797E-09
 -1       936-4.24341E-07 1.76944E-06-3.79282E-07 6.65905E-07 1.36806E-08 9.23273E-09
 -1       937-2.55637E-07 1.81943E-06-4.39259E-07 1.24391E-06 2.43900E-08 1.96542E-08
 -1       938-7.85110E-06-8.58903E-06 4.66762E-06-1.61776E-05-7.42025E-08-4.05992E-08
 -1       939 1.99147E-08-1.86028E-05 5.15698E-06-1.25793E-05-2.21417E-07-8.57151E-08
 -1       940-4.32276E-06-8.18272E-06 3.68118E-06-1.24838E-05-3.96039E-08-1.25468E-07
 -1       941 1.98745E-06-1.66086E-05 4.08421E-06-8.90381E-06-1.86418E-07 7.83729E-08
 -1       942 2.59823E-07 2.18155E-07-1.43858E-07-2.81541E-07 3.45650E-08-5.23476E-08
 -1       943-5.46988E-08 1.85649E-07-2.55919E-08-1.78150E-08-3.49144E-09-1.10067E-08
 -1       944 4.52251E-07 1.47087E-07-2.32798E-07-5.81163E-07 5.81924E-08-2.88892E-08
 -1       945 5.39783E-07 2.76032E-07-2.25746E-07-5.04015E-07 2.90689E-08-6.16142E-09
 -1       946 1.03703E-06 4.45758E-07-4.16524E-07-1.27123E-06 4.00605E-08-3.31837E-08
 -1       947 7.75768E-07 2.72626E-07-2.97119E-07-8.87263E-07 7.88252E-08-2.13635E-08
 -1       948-3.49224E-06 4.14206E-06-1.35579E-07-4.90919E-06-6.67037E-08-3.83661E-08
 -1       949-1.17492E-06 7.61586E-06-1.76847E-06-3.19538E-06 2.16343E-07 2.41837E-07
 -1       950 1.51579E-07 1.10075E-07-5.50439E-08-5.38809E-08-1.35656E-08-4.34058E-08
 -1       951-5.40169E-06 1.21978E-05-1.86188E-06-2.42867E-06 7.99841E-08 1.93553E-08
 -1       952-5.78530E-06 1.22897E-05-1.78744E-06-2.02420E-06-9.31598E-08 2.01084E-08
 -1       953-5.88193E-06 1.20838E-05-1.74308E-06-2.44641E-06-2.15726E-09-3.42366E-08
 -1       954-4.69694E-06 1.25527E-05-2.25051E-06-3.69253E-06-8.59288E-08 9.73860E-08
 -1       955 1.36116E-06 2.49102E-06-9.46653E-07-3.78806E-06 9.93474E-08 4.78924E-08
 -1       956 3.16321E-06 2.09425E-06-1.46803E-06-4.42254E-06 1.52424E-07 2.58248E-07
 -1       957 3.43247E-06 1.39651E-06-1.63884E-06-4.36157E-06-6.65428E-08 2.08759E-07
 -1       958 2.72708E-06 9.65831E-08-8.15670E-07-1.99345E-06-9.61075E-09 1.70309E-07
 -1       959 2.06281E-06-6.10917E-08-9.86171E-07-1.28243E-06 2.33177E-07 3.72113E-08
 -1       960-4.02711E-05-4.63355E-05 1.55577E-05-5.46761E-05-2.16095E-06-1.80985E-06
 -1       961-1.40809E-05 5.26240E-06 2.51383E-06-5.09146E-07-4.89438E-08 5.24629E-08
 -1       962-7.67029E-06-2.32051E-06 2.72975E-06-1.46432E-06 9.27302E-08-6.91014E-08
 -1       963-1.92503E-05-3.42215E-06 6.83293E-06-2.80018E-06 2.72159E-07 3.94583E-07
 -1       964-3.88456E-06 9.64667E-06-1.60289E-06-3.55389E-06 3.14090E-08-2.04882E-08
 -1       965-1.18232E-06 3.43342E-06-6.27937E-07-1.24121E-06-8.23448E-09-1.33930E-08
 -1       966-1.62933E-06 3.80759E-06-6.20072E-07-8.16076E-07-1.53024E-08 1.08707E-08
 -1       967-2.77540E-06 6.09554E-06-9.45476E-07-1.74573E-06 1.99709E-08-7.02042E-09
 -1       968-3.28520E-06 6.51462E-06-9.19763E-07-1.13216E-06-4.55731E-09 3.54739E-08
 -1       969-9.26147E-06-8.08280E-07 2.84974E-06-1.32986E-05-1.01372E-07-5.71202E-08
 -1       970 1.45202E-06-3.70763E-06 6.55122E-07-4.97022E-06 2.26366E-08 5.62836E-09
 -1       971 1.42787E-06-6.52572E-06 1.38230E-06-2.02799E-06 4.96819E-08-1.18515E-07
 -1       972 1.68653E-06-8.46737E-06 1.92496E-06-1.85796E-06-2.15760E-08-1.11963E-08
 -1       973 1.50621E-06-5.42731E-06 9.06412E-07-2.07444E-06 7.87991E-08-1.00796E-07
 -1       974 8.12049E-07 3.33709E-08-1.78049E-07-6.46615E-07 2.86225E-08-8.09912E-08
 -1       975 1.30757E-06 1.25366E-06-6.89554E-07-2.52618E-06 7.67770E-08-7.14161E-08
 -1       976-5.05522E-05-1.03663E-05 1.23586E-05-2.44110E-05 2.09397E-07 1.37916E-06
 -1       977 3.34011E-06-2.68327E-07-1.25979E-06-2.74553E-06-7.18267E-08-1.05959E-07
 -1       978 7.59205E-07 2.17722E-07-2.15251E-07-9.32064E-07-4.06517E-08 7.85251E-08
 -1       979 3.42030E-06 6.35546E-07-1.17300E-06-3.34237E-06-1.41758E-07-3.71759E-07
 -1       980-1.82395E-06 1.91475E-05-4.86538E-06-6.26675E-06 2.30075E-07-7.77460E-08
 -1       981-1.64324E-07 1.70812E-05-4.97913E-06-7.20355E-06-1.00513E-07 1.07440E-07
 -1       982-1.86324E-06 1.61943E-05-4.12847E-06-5.59264E-06-5.75310E-08 3.98982E-08
 -1       983 9.97106E-07 1.23143E-05-3.77827E-06-7.75182E-06-6.95744E-08 1.05001E-07
 -1       984-1.33245E-07 1.06458E-05-3.01682E-06-7.10185E-06 4.95081E-09-1.54043E-07
 -1       985 7.99080E-07 9.85432E-06-2.87511E-06-7.48256E-06 4.83736E-08-4.51296E-08
 -1       986 2.06133E-06-8.04959E-07-3.58647E-07-1.20435E-05 1.09232E-08 1.66907E-08
 -1       987-2.22172E-06 6.33993E-06-1.11081E-06-2.96234E-06-5.90132E-09-1.26490E-08
 -1       988-2.82603E-06 7.49032E-06-1.29852E-06-3.53886E-06 3.25290E-08-1.40430E-07
 -1       989-4.49663E-06 8.57020E-06-1.19108E-06-1.61106E-06 2.32137E-09-5.33106E-09
 -1       990-1.11890E-06 4.65420E-06-9.53217E-07-3.27179E-06 4.07301E-08-1.42715E-08
 -1       991-8.18314E-06 1.04109E-05-6.09311E-07-3.49617E-06 3.02310E-08 8.20369E-09
 -1       992-6.33607E-06 1.16828E-05-1.52575E-06-1.92023E-06 3.70703E-08-7.71084E-09
 -1       993 4.05410E-06 3.77325E-06-2.74426E-06-5.68601E-06-5.29702E-08 1.16670E-07
 -1       994-1.51799E-07 7.37613E-06-2.10170E-06-6.63825E-06-3.41779E-09 1.18673E-07
 -1       995-6.98427E-06 1.27996E-05-1.56894E-06-1.38742E-06-5.49267E-08 4.58611E-08
 -1       996-9.11820E-06 8.34157E-06 2.90034E-07-5.34372E-09 8.40531E-09 7.99109E-08
 -1       997 3.77496E-07 8.31160E-06-2.65341E-06 9.66598E-08-4.39336E-07-1.63694E-07
 -1       998-3.19217E-06 3.91582E-08 8.26024E-07-6.25313E-07 8.57588E-08 8.11435E-08
 -1       999-2.29897E-05 1.58167E-05 2.11802E-06-3.45349E-06 4.07939E-08 3.81163E-08
 -1      1000-2.07423E-05 1.91394E-05 3.93974E-07 2.35510E-06 2.17208E-08-3.87059E-08
 -1      1001 1.83149E-06 4.10371E-06-1.68638E-06-9.57168E-06 2.25609E-08 9.66201E-09
 -1      1002 1.90090E-06 3.60112E-06-1.60037E-06-1.02132E-05 3.29251E-09 6.50799E-11
 -1      1003 1.61146E-06 2.36690E-06-1.06421E-06-1.11211E-05 6.09936E-08-8.68834E-10
 -1      1004 1.04371E-06 3.90327E-06-1.35902E-06-9.14560E-06 4.64398E-09 6.66576E-08
 -1      1005 7.86501E-07 3.60379E-06-1.24076E-06-9.57219E-06-3.36089E-08-1.70190E-09
 -1      1006 4.64422E-08 1.74287E-08-1.16735E-08-2.24102E-07-4.08201E-10-5.24949E-09
 -1      1007 2.42084E-08 3.04482E-07-9.57776E-08-1.76675E-08-5.39224E-09 1.38953E-08
 -1      1008 1.76025E-06 9.50598E-06-3.35516E-06-5.50852E-06-3.27290E-08 1.85915E-07
 -1      1009 1.84767E-06 1.09895E-05-3.73109E-06-3.90424E-06-2.29193E-07 4.27308E-07
 -1      1010 5.51411E-07 3.35078E-06-1.05651E-06-4.31120E-06 1.40751E-07-6.41299E-08
 -1      1011 1.36094E-06 9.44857E-06-3.02767E-06-8.30167E-06 7.67499E-08 7.41200E-08
 -1      1012-8.81181E-08 1.09097E-05-3.08595E-06-7.86300E-06-7.70452E-08 2.14565E-07
 -1      1013 9.19349E-07 7.09664E-06-2.24345E-06-8.07350E-06 1.00880E-07-6.94469E-09
 -1      1014 1.57824E-06 7.06970E-06-2.47249E-06-8.63885E-06 1.75450E-07-3.89425E-08
 -1      1015-7.00599E-08 8.59167E-06-2.44646E-06-7.45878E-06-6.00967E-09-6.64679E-08
 -1      1016-3.69049E-06 1.18908E-05-2.33259E-06-2.62310E-06 1.01952E-07 2.46054E-08
 -1      1017-5.93118E-07 2.90924E-06-6.54193E-07-2.03583E-06-1.25319E-08 5.37322E-09
 -1      1018 7.24117E-08 9.04876E-07-2.86955E-07 6.98957E-07-7.85986E-10 8.89684E-09
 -1      1019 4.69286E-07 1.13126E-06-4.44141E-07 1.62802E-06 7.95930E-09-4.40631E-10
 -1      1020-9.72050E-06 1.09276E-05-3.84695E-07-2.95528E-06 2.26520E-08-2.76551E-08
 -1      1021-6.33268E-06 1.11875E-05-1.36370E-06-2.30983E-06 8.37217E-08 6.20852E-09
 -1      1022-5.61169E-06 1.01853E-05-1.27070E-06-3.18414E-06 3.60232E-08-1.35017E-08
 -1      1023-7.56764E-06 1.17562E-05-1.23740E-06-1.54551E-06 4.76315E-08 1.32636E-08
 -1      1024 3.95254E-07 2.76842E-06-8.85672E-07-3.15299E-06-6.19231E-08 1.31737E-08
 -1      1025-1.38530E-06 5.92602E-06-1.28670E-06-3.85447E-06 3.51740E-08-8.68346E-08
 -1      1026-1.62861E-07 4.03440E-06-1.05552E-06-4.15379E-06-3.23249E-08 6.33647E-08
 -1      1027 3.76551E-06 1.38551E-05-3.27684E-06 4.67167E-06 1.35378E-06-1.48955E-07
 -1      1028 3.14278E-06 7.54108E-06-2.58409E-06 2.54412E-06-1.48361E-07-1.83653E-07
 -1      1029-8.78454E-07-3.31149E-06 7.88421E-07-2.66389E-06 4.84635E-08-4.06200E-07
 -1      1030 1.26305E-06 1.11457E-06-6.68184E-07 2.91181E-06 2.62341E-08 1.89901E-08
 -1      1031 2.52663E-06 1.47496E-06-1.03720E-06 4.95578E-06-1.77649E-09 5.38013E-08
 -1      1032 1.18931E-06 1.20275E-06-6.49315E-07 2.96649E-06 1.41955E-08-8.75213E-09
 -1      1033-2.54928E-07 3.91869E-06-1.11440E-06-3.64368E-06-3.51949E-09 6.06301E-08
 -1      1034 3.36372E-07 2.14997E-06-6.67672E-07-2.30843E-06 3.04521E-08-6.44904E-08
 -1      1035 4.72449E-08 2.90801E-06-8.39197E-07-2.88391E-06 3.64970E-08 4.00982E-08
 -1      1036 9.73788E-06-1.89081E-06-2.35264E-06 3.55719E-06 2.64123E-08 2.16754E-09
 -1      1037 2.26950E-05-1.85189E-06-6.14287E-06 1.36287E-05-4.32240E-07-7.02578E-07
 -1      1038 1.86618E-05-3.23674E-06-5.16158E-06 6.02498E-06-4.00709E-07 4.26891E-07
 -1      1039 1.00429E-05 2.10046E-06-3.31574E-06 1.28874E-05 6.12663E-09-8.38186E-08
 -1      1040 1.84004E-06 3.97064E-06-1.16050E-06 2.04783E-06-9.82574E-08 3.82706E-07
 -1      1041 9.74640E-07 3.12181E-07-3.69683E-07-1.20697E-05-1.61996E-08 7.18944E-09
 -1      1042 5.34324E-07 1.79966E-06-5.91727E-07-1.12673E-05-4.17234E-08-8.82241E-09
 -1      1043-3.13586E-05-3.36797E-06 9.98686E-06-4.50016E-06 3.10992E-07 1.03850E-06
 -1      1044-2.52484E-05-8.81455E-06 6.73442E-06-1.08244E-05 4.80299E-07-1.84550E-06
 -1      1045-4.78949E-05-1.05160E-05 1.06952E-05-2.07349E-05 9.44211E-08 7.08370E-08
 -1      1046-1.48762E-06 5.77775E-06-1.27783E-06 6.22925E-06-3.17318E-08 5.56387E-09
 -1      1047-1.84934E-06 5.90303E-06-1.11233E-06 5.59153E-06-6.56216E-09 4.91433E-08
 -1      1048-1.93268E-06 5.93501E-06-1.10586E-06-3.19663E-06-8.52385E-09-2.36570E-09
 -1      1049-3.05237E-06 6.71511E-06-1.05595E-06-2.29673E-06-1.66533E-08 2.66011E-08
 -1      1050 2.55839E-06 8.47713E-06-3.15276E-06-7.18607E-06 2.18917E-07-2.92754E-07
 -1      1051 1.13635E-06 3.26357E-06-1.23182E-06-4.84114E-06-1.29663E-07 4.75585E-08
 -1      1052 1.73498E-06 9.51714E-07-7.56553E-07-2.47432E-06 6.47473E-08-6.03227E-08
 -1      1053 3.19841E-09 7.04753E-08-3.98440E-09-1.49057E-07-1.53582E-08 5.85454E-09
 -1      1054-6.82142E-06 1.05576E-05-1.04299E-06 1.48714E-06 2.63365E-08 6.83073E-08
 -1      1055-8.05364E-06 1.17827E-05-1.03395E-06 4.07661E-06 2.19421E-08 7.09283E-08
 -1      1056-5.78057E-06 9.52446E-06-1.02401E-06 5.07089E-06 3.25786E-08 6.80839E-08
 -1      1057-1.44073E-06 1.16247E-05-2.97495E-06-6.33227E-06-9.28739E-08 3.55816E-07
 -1      1058 5.75526E-07-5.94739E-06 1.47788E-06-8.66984E-06-3.28636E-08 2.66884E-08
 -1      1059 1.36963E-06-7.21202E-06 1.64651E-06-5.17693E-06-2.20215E-08-4.43234E-08
 -1      1060 2.19417E-05 4.41805E-05-1.11342E-05 4.36396E-05-1.43980E-06-9.01061E-07
 -1      1061-5.51612E-07 9.49892E-07-4.01204E-08-1.14383E-05-7.10913E-08 4.98126E-08
 -1      1062 1.18629E-07 8.10318E-08-4.72252E-08-1.22281E-05 1.74763E-08 4.37859E-08
 -1      1063 4.06856E-06 3.49339E-06-2.65553E-06-5.58106E-06 8.57061E-08-1.99925E-07
 -1      1064 1.00719E-06 5.27201E-06-1.94395E-06-5.88060E-06-1.57698E-07-1.54397E-07
 -1      1065-3.65638E-06 4.73403E-06-3.14228E-07-8.04344E-06-9.55413E-09-4.76506E-08
 -1      1066-6.20050E-07 2.69139E-06-6.22759E-07-9.50454E-06-3.81565E-08-3.66347E-08
 -1      1067 1.57955E-06 1.43186E-06-7.68731E-07-2.85907E-06-1.16097E-07 8.01542E-09
 -1      1068 3.51002E-07 2.42846E-06-7.68796E-07-2.51491E-06-7.34881E-08 4.80368E-08
 -1      1069 5.93933E-08 1.57749E-06-4.52389E-07-1.43296E-06 2.88325E-08-2.65543E-08
 -1      1070 7.19937E-07 6.56296E-07-3.71951E-07-1.21910E-06 7.38075E-09-3.26054E-08
 -1      1071 9.37978E-07 6.50307E-07-4.56228E-07-1.38801E-06-5.79714E-09 1.46906E-08
 -1      1072 7.32483E-08 1.15102E-06-3.44107E-07-9.40329E-07-7.53463E-10-2.07120E-08
 -1      1073-8.74222E-06-4.58192E-06 2.93820E-06-4.43849E-06-2.97460E-07 4.56945E-07
 -1      1074-3.12559E-07-8.25569E-07 3.59556E-07-1.20564E-05 6.28418E-08-5.02999E-08
 -1      1075 6.71172E-07-1.06840E-06 8.68700E-08-1.23166E-05-3.82526E-08-2.28802E-08
 -1      1076 5.92492E-07-3.30613E-07-1.65555E-08-1.25443E-05 5.00277E-08 3.61072E-08
 -1      1077 1.12683E-06-3.83079E-07-1.81238E-07-1.27168E-05 2.62023E-08 6.22757E-08
 -1      1078-9.97094E-06 1.27072E-05-7.42086E-07 9.14282E-07 1.85824E-08-1.87153E-08
 -1      1079-9.96361E-06 1.23720E-05-6.80852E-07-1.18591E-06 9.23644E-08 2.31977E-09
 -1      1080 3.94911E-06-3.78568E-06-1.04949E-07-4.35606E-06-1.46343E-07-7.74913E-08
 -1      1081-8.91102E-07-9.17999E-06 2.83565E-06-1.09940E-05-7.47026E-09-3.68049E-08
 -1      1082-5.23723E-06-2.67529E-06 2.16703E-06-1.21257E-05-9.20179E-08-2.90075E-08
 -1      1083 1.91187E-07 9.52466E-07-3.00168E-07-8.20028E-07 2.64544E-08 1.18693E-08
 -1      1084 1.16220E-07 1.88291E-06-5.21627E-07-1.78411E-06-9.16850E-09 2.86169E-08
 -1      1085-2.33245E-06-3.09393E-06 1.51635E-06-1.16996E-05-5.50924E-08 5.89594E-08
 -1      1086 2.94645E-06 1.25889E-05-4.41911E-06-8.82821E-06 3.00277E-07-6.18921E-08
 -1      1087 3.51267E-06 4.37793E-06-2.52931E-06-4.87865E-06-2.37098E-08 1.07320E-08
 -1      1088-1.91995E-05 1.50400E-05 1.13762E-06 5.25975E-07 9.45102E-08-7.16121E-08
 -1      1089 1.44466E-07 5.65171E-08-1.13338E-08-1.33122E-07-3.85965E-09-2.76584E-09
 -1      1090 2.18070E-07-1.14618E-07-1.16404E-08-1.82528E-07-1.44418E-08 4.32082E-08
 -1      1091 2.45294E-07-1.34923E-07-2.01394E-08-2.67462E-07 2.70194E-10 6.94572E-09
 -1      1092 5.88259E-07 2.54482E-06-8.70554E-07 4.20698E-06-3.52718E-08 4.05159E-08
 -1      1093 2.72078E-07 1.81100E-06-6.05729E-07 2.67846E-06-2.01182E-08 8.87160E-08
 -1      1094 2.92976E-06 1.12920E-05-3.94193E-06-7.21271E-06 1.29415E-07-1.60236E-07
 -1      1095 2.96150E-06 1.20559E-05-4.07353E-06-7.63816E-06-8.11078E-08-2.88083E-07
 -1      1096-2.60609E-05 1.28891E-05 3.74618E-06-7.01350E-06-1.63557E-08-1.61182E-07
 -1      1097-2.80089E-05 2.75986E-06 7.10148E-06-1.66372E-05-5.64170E-08 2.80900E-08
 -1      1098-3.07747E-05 7.82756E-06 6.75764E-06-6.69078E-06-4.67223E-07 5.34779E-07
 -1      1099-2.28943E-05 1.41485E-05 2.50378E-06-2.25452E-06-1.54769E-08-4.45333E-08
 -1      1100-1.51939E-05 1.61901E-05-2.94624E-07 3.41581E-06-4.09344E-08-6.20285E-08
 -1      1101 4.63849E-06-2.30794E-05 5.09170E-06-3.96788E-06 8.41902E-08-1.05967E-07
 -1      1102 4.36602E-06-2.81429E-05 6.78594E-06-8.68527E-06 5.69179E-08 2.12119E-07
 -1      1103 3.55066E-07 7.06878E-06-2.00241E-06-5.83559E-06 2.12635E-07-2.68631E-07
 -1      1104-4.77629E-06 1.02155E-05-1.57529E-06-2.97594E-06 4.13581E-08 1.77461E-08
 -1      1105-1.62721E-06 8.28722E-06-1.84531E-06-5.23157E-06 1.47521E-07-1.47738E-07
 -1      1106-2.31135E-06 1.90336E-05-4.83255E-06-5.69538E-06 2.43228E-07-9.52796E-08
 -1      1107 1.43627E-06 1.79313E-05-5.38116E-06-7.09489E-06-1.85622E-07-1.01313E-07
 -1      1108 4.23274E-07 1.78030E-06-6.44541E-07 2.51688E-06-9.57074E-09 2.34651E-08
 -1      1109-1.97793E-06 4.67508E-07 4.53139E-07-1.06424E-05-1.41660E-08-2.39989E-08
 -1      1110-3.53420E-06 8.20629E-07 7.25379E-07-1.05072E-05 5.95226E-08 1.41537E-07
 -1      1111 8.95637E-07 3.73262E-06-1.35326E-06 6.88522E-06-2.48393E-08 3.28102E-08
 -1      1112-1.91759E-05-6.27777E-06 6.32110E-06-7.17500E-06 2.45923E-07 8.00828E-07
 -1      1113 2.87026E-07 5.54430E-06-1.65685E-06-7.27428E-06-6.85249E-08 5.79536E-08
 -1      1114 4.90894E-07 4.44129E-06-1.43061E-06 7.31041E-06-5.35749E-08 1.93551E-08
 -1      1115 1.58907E-07 4.63777E-06-1.31823E-06 7.05381E-06-7.57024E-08 9.50460E-09
 -1      1116 1.44046E-06 3.12159E-06-1.23475E-06 6.32879E-06-2.95184E-08 7.84388E-08
 -1      1117-1.64375E-06-8.65994E-07 7.22872E-07-1.16387E-05 6.42907E-10 2.78067E-08
 -1      1118-1.49262E-06 1.96360E-06-1.46750E-07-1.01316E-05-2.31197E-08 1.31717E-09
 -1      1119 6.38064E-06 5.31632E-05-9.97236E-06 2.43714E-05 2.61232E-06 6.48342E-07
 -1      1120 3.80840E-05 2.21269E-05-1.09098E-05 4.57779E-05-2.43539E-07 3.74963E-07
 -1      1121-2.91064E-07 1.95028E-06-4.68675E-07-1.29532E-06 8.59910E-10-3.77387E-09
 -1      1122 7.94211E-07 1.87585E-05-5.16615E-06-7.15463E-06 4.62468E-08-5.89870E-08
 -1      1123 2.24873E-06 1.44302E-05-4.80914E-06-7.46566E-06-1.54076E-07 5.64176E-09
 -1      1124 1.90260E-06 1.10811E-05-3.76965E-06-3.99765E-06 2.44296E-07-3.45024E-07
 -1      1125 2.09217E-07 5.63058E-08-5.59124E-08 3.88960E-08-7.83743E-08 1.06756E-07
 -1      1126-1.09214E-07 1.03601E-06-2.63401E-07 4.79960E-07 1.19258E-08 1.28876E-09
 -1      1127 2.94249E-06 1.26138E-05-4.42752E-06-8.85790E-06-3.04357E-07 5.83817E-08
 -1      1128-3.94826E-07 1.66095E-05-5.00349E-06 4.53350E-07-9.23549E-07 3.30710E-08
 -1      1129 1.95813E-05-1.36071E-06-9.83388E-06 1.06135E-05 2.08845E-06 2.99752E-06
 -1      1130-1.57616E-05 2.22863E-05-1.95153E-06 8.84191E-06 1.89873E-09 6.47644E-08
 -1      1131-9.83375E-06 2.19303E-05-3.37748E-06 1.48470E-05-1.07423E-08-4.37846E-08
 -1      1132-2.41417E-05 6.58617E-06 5.34934E-06-3.68260E-06-1.99024E-07 9.31392E-08
 -1      1133-2.15623E-05 8.90818E-06 3.43155E-06-1.03870E-05 5.02798E-09-1.25403E-07
 -1      1134-2.02376E-06 6.77702E-06-1.36352E-06 7.38744E-06-1.95919E-08-9.06806E-09
 -1      1135 3.20952E-06 1.06431E-05-4.00258E-06-7.11157E-06 2.98538E-08 1.88873E-07
 -1      1136-4.55781E-06 9.05547E-07 1.07176E-06-1.07214E-05 1.04744E-08-5.91797E-08
 -1      1137-5.75891E-06 9.99924E-06-1.19652E-06-6.01279E-07 5.70315E-08-3.39283E-08
 -1      1138-6.99185E-06 1.17065E-05-1.33108E-06-1.31806E-07-2.01140E-08-3.34173E-08
 -1      1139-5.25502E-06 1.07186E-05-1.55607E-06-2.56646E-06 9.59319E-09 2.98038E-08
 -1      1140 1.88838E-07 8.79625E-06-2.53422E-06-7.63577E-06 7.09898E-08 7.29258E-08
 -1      1141 8.01598E-07 5.16819E-06-1.71113E-06-8.99288E-06-1.18475E-08 7.61081E-09
 -1      1142 1.65957E-06 9.92707E-06-3.28903E-06-8.26758E-06-1.04594E-07-1.50955E-07
 -1      1143 1.63657E-06 6.36352E-06-2.34436E-06-8.84693E-06-3.48514E-08-3.91966E-08
 -1      1144-1.31036E-05-5.05743E-06 5.16528E-06-1.65502E-05-2.25563E-07 1.57325E-07
 -1      1145-1.98173E-05-9.28904E-07 5.99345E-06-1.79482E-05 1.39504E-07 1.51936E-07
 -1      1146 2.24825E-06 1.44137E-05-4.77479E-06-7.46242E-06 1.20159E-07 1.76591E-08
 -1      1147 1.65025E-06 1.82481E-05-5.51860E-06-7.16037E-06 2.99925E-07 4.29673E-08
 -1      1148-3.63585E-06-2.23666E-05 7.09289E-06-1.94667E-05-5.12026E-07 1.07866E-07
 -1      1149-5.43745E-06 9.69140E-06-1.21352E-06-8.52839E-07 2.26950E-09 1.94230E-08
 -1      1150-3.33259E-05-5.99351E-06 1.18584E-05-1.73348E-05-5.71139E-08-6.74591E-07
 -1      1151-2.71675E-05-7.70706E-06 1.17405E-05-2.74033E-05-3.28546E-08-4.73166E-07
 -1      1152-3.68602E-05-3.49082E-05 1.44532E-05-4.87123E-05 1.43953E-06 1.32317E-06
 -1      1153 2.18142E-08 4.19919E-07-1.19651E-07-6.09663E-07-6.89887E-09 8.92430E-09
 -1      1154 9.40754E-07 3.95366E-05-7.77952E-06 1.02524E-05 3.16891E-07 1.30221E-06
 -1      1155-2.94215E-06 2.91602E-05-7.37871E-06 4.65792E-06 2.47899E-07-1.47343E-07
 -1      1156 3.84947E-06 3.09355E-05-5.10295E-06 9.17917E-06 1.31130E-07 3.25445E-07
 -1      1157 1.71444E-06 3.21411E-07 1.09032E-08 1.53683E-06-2.82334E-07-7.49174E-08
 -1      1158-1.48553E-05-1.83171E-05 8.91076E-06-2.43441E-05-3.38159E-07 2.90976E-07
 -1      1159 6.09570E-07 3.38261E-07-2.79432E-07 9.21744E-07 3.95327E-09 4.94923E-09
 -1      1160-8.23640E-07 5.72134E-06-1.33921E-06 7.61594E-06-4.77952E-08-1.01754E-08
 -1      1161-2.38058E-06 6.86582E-06-1.28470E-06 7.03163E-06-1.25354E-08-8.06883E-08
 -1      1162-2.39858E-06 7.51243E-06-1.48999E-06 9.04094E-06-1.39288E-08-4.45730E-08
 -1      1163-3.74289E-06 7.63236E-06-1.18726E-06 5.64700E-06-6.99788E-09-2.77528E-08
 -1      1164-1.21227E-05 1.17761E-05 1.08956E-07-2.83553E-06-2.35455E-08-4.62028E-08
 -1      1165 2.49892E-06-7.80927E-07-4.93431E-07-1.08161E-05 6.08828E-08-6.51357E-10
 -1      1166-3.12524E-08 1.70163E-07-3.13713E-08 1.58654E-07 3.92251E-09 3.66957E-09
 -1      1167-3.44658E-08 1.21652E-07-9.53127E-09 4.74267E-08-2.51058E-09-2.07708E-08
 -1      1168-2.35249E-06 1.51101E-05-3.74082E-06-3.54049E-06 2.90234E-08-3.24764E-08
 -1      1169-8.61173E-07 2.39088E-07 1.51569E-07-1.07810E-05-1.23075E-08 4.72898E-08
 -1      1170-1.93694E-06 4.54626E-06-7.44629E-07-7.81293E-06-4.16724E-09-4.04951E-08
 -1      1171 2.29290E-07 1.76409E-07-1.36276E-07-5.57062E-07 7.86745E-09-7.43392E-08
 -1      1172-1.24995E-07-6.65795E-06 1.95628E-06-9.22749E-06 3.52717E-08 2.02317E-08
 -1      1173-1.87978E-06 1.22412E-05-3.15096E-06-3.65802E-06-1.91435E-07 1.23036E-08
 -1      1174-2.84752E-06 9.64760E-06-1.97810E-06 1.11114E-05 4.87685E-08 2.21451E-08
 -1      1175-6.46232E-07 8.25283E-06-2.08903E-06 1.19590E-05 1.70440E-07 1.10034E-07
 -1      1176 6.34754E-07 6.96139E-06-2.03927E-06 1.13532E-05 7.70347E-08 1.11468E-07
 -1      1177-1.00887E-06 6.48598E-06-1.58166E-06 8.50754E-06-9.72572E-08-5.29023E-08
 -1      1178 5.67845E-07 5.11551E-06-1.59127E-06 8.86742E-06-4.92405E-08 6.25389E-08
 -1      1179-1.93185E-06 1.26841E-05-3.12677E-06-4.05650E-06 8.22477E-08-7.90356E-08
 -1      1180 6.46065E-06-4.18303E-05 1.10940E-05-1.64505E-05 9.27507E-07-5.67198E-07
 -1      1181 2.49023E-06 3.14167E-06-1.58613E-06 7.72642E-06-6.22810E-08-5.18572E-08
 -1      1182-1.65730E-06 1.28157E-05-3.18711E-06-3.05875E-06 9.20357E-08-3.69716E-08
 -1      1183-7.55974E-08 9.79312E-08 8.99510E-09 1.35619E-08-6.72569E-09 7.17271E-09
 -1      1184 1.38594E-06-3.06042E-06 4.54661E-07-8.38817E-06 1.50572E-09-3.00185E-08
 -1      1185 8.12404E-07 3.55361E-06-1.23000E-06 6.08647E-06-4.05014E-08 1.00544E-07
 -1      1186-1.02942E-06-3.19846E-06 1.15344E-06-1.16139E-05-5.43216E-08 6.69368E-09
 -1      1187-1.09959E-05 4.51120E-06 1.82461E-06-1.01449E-05 1.51364E-08-1.76308E-09
 -1      1188-7.87488E-06 2.06046E-06 1.64758E-06-1.09413E-05 3.47646E-09-1.29192E-08
 -1      1189-2.77657E-07 9.12817E-07-1.84809E-07 6.05348E-08 8.62357E-09-5.37522E-09
 -1      1190-3.94529E-06 7.49505E-06-1.05578E-06-5.30026E-06-2.49305E-08-1.64939E-08
 -1      1191-1.39232E-07 8.87608E-08 1.76524E-08-1.52232E-07-3.55740E-09 7.05550E-09
 -1      1192 1.58317E-05 1.13881E-05-1.00179E-05 1.91689E-05-2.57307E-07 6.63759E-09
 -1      1193 3.51168E-06 2.07469E-05-8.15022E-06 2.45670E-05-6.90566E-07 2.87180E-07
 -1      1194 1.20968E-05 8.93244E-06-5.64216E-06 2.14809E-05 6.55328E-07 4.83108E-07
 -1      1195-1.09758E-05 1.70919E-05-1.74208E-06 1.07150E-06-2.82763E-07 3.56252E-07
 -1      1196-9.89852E-06 2.99799E-05-5.58479E-06 9.71206E-06 6.02278E-07-2.61473E-07
 -1      1197-4.34221E-06 3.60442E-05-9.19222E-06 1.70461E-05-6.08278E-07-6.68291E-07
 -1      1198 1.73944E-07-1.22570E-07-1.66765E-08-1.40869E-07 1.04412E-09-1.69264E-08
 -1      1199-7.90007E-06 2.70387E-05-5.93497E-06 1.72809E-05-6.74297E-07-1.37248E-07
 -1      1200 1.39355E-07 2.21719E-07-1.05565E-07 6.76263E-08-3.53035E-09 5.54522E-09
 -1      1201-1.26539E-07 2.41146E-08 4.41429E-08-1.94774E-07 1.03388E-08-1.60682E-08
 -1      1202 5.85433E-06 3.58943E-07-1.71956E-06 6.93713E-06-3.93148E-08 1.13490E-07
 -1      1203 4.85125E-06 2.04805E-06-1.93638E-06 8.47794E-06-1.07296E-07-6.46083E-08
 -1      1204 3.27079E-06 1.38617E-06-1.36342E-06 6.11716E-06 7.10914E-08 3.36266E-09
 -1      1205 2.72226E-06 2.30236E-06-1.42071E-06 6.68150E-06 4.46857E-08 7.79171E-08
 -1      1206-2.11367E-05 1.80576E-05 8.48023E-07 8.75194E-07 8.13140E-09 3.14289E-08
 -1      1207 6.21353E-06-5.64991E-07-1.43776E-06 3.22030E-06-3.91594E-08-4.17875E-08
 -1      1208 2.63366E-07 2.57312E-07-1.46329E-07 2.76571E-07-4.88570E-09 4.30878E-09
 -1      1209-3.55227E-06 7.70129E-06-1.22894E-06 6.32212E-06-2.58472E-08-3.26138E-09
 -1      1210 8.08160E-07 3.02833E-07-4.04749E-07-1.03943E-06-1.71624E-08 6.28676E-09
 -1      1211-4.59533E-06 1.51896E-05-2.90350E-06 1.53529E-05-6.44141E-08-1.26507E-07
 -1      1212 1.29171E-06 1.59374E-05-5.01184E-06 1.97203E-05 1.75017E-07 1.66588E-07
 -1      1213-1.85454E-06 1.14048E-05-2.83220E-06-3.42877E-06 6.82270E-08 2.24220E-08
 -1      1214-1.17830E-06 9.93010E-06-2.32875E-06-2.97339E-06 3.16482E-08 7.46773E-08
 -1      1215 2.73019E-06 1.11821E-05-3.62347E-06-6.32426E-06-6.37150E-08 1.06346E-07
 -1      1216 9.58163E-07 4.70666E-06-1.58764E-06-9.45444E-06 9.11976E-08-4.77623E-08
 -1      1217-8.01546E-06 1.36187E-05-1.63895E-06 9.99552E-06 4.99341E-09-2.86251E-08
 -1      1218-5.27840E-06-3.94903E-05 1.55514E-05-2.45098E-05 3.67616E-07-1.86909E-06
 -1      1219-1.56598E-06 1.02523E-05-2.43227E-06-3.41888E-06-1.20633E-07-2.07447E-07
 -1      1220-1.63442E-07 6.63834E-06-1.87224E-06-6.80546E-06-1.30081E-07-9.90229E-09
 -1      1221-3.61887E-06 7.40769E-06-1.05043E-06-5.46725E-06 3.54762E-08 2.95429E-08
 -1      1222-1.76822E-07 4.04354E-06-1.20372E-06-9.24235E-06-3.78590E-08 3.48526E-08
 -1      1223-9.20230E-07 4.57446E-06-1.12995E-06-6.22233E-06 2.63996E-08 5.40720E-09
 -1      1224-3.65729E-06 9.46808E-07 7.50185E-07-1.03150E-05-8.97310E-08 1.58614E-08
 -1      1225-6.02314E-07 1.70872E-05-4.70200E-06-6.77388E-06 8.47188E-09-1.14714E-07
 -1      1226-1.90684E-06 1.56717E-05-3.90035E-06-5.58813E-06-1.99598E-07 2.27201E-07
 -1      1227-2.65167E-06 3.21574E-06-6.45421E-08-5.42815E-06-5.42729E-08-2.50614E-07
 -1      1228-5.81558E-06 9.67436E-06-1.00354E-06 5.96307E-06 6.17580E-08-8.57900E-08
 -1      1229-6.76067E-07 6.64618E-06-1.55002E-06-3.01059E-06-3.02405E-08 1.89505E-07
 -1      1230 5.45566E-06 4.64974E-06-2.93230E-06 1.23918E-05 1.01337E-07-6.81106E-08
 -1      1231 3.41379E-06 8.67196E-06-3.43370E-06 1.58405E-05 2.14217E-07-1.18060E-08
 -1      1232-1.34887E-05 1.72170E-06 3.17356E-06-1.31939E-05 5.88854E-08-9.41730E-08
 -1      1233 1.83886E-06 2.33785E-06-1.13248E-06 5.60902E-06-5.78328E-09 8.72035E-10
 -1      1234-3.38994E-06 6.83905E-06-1.01859E-06 4.01670E-06-7.04748E-08-1.17661E-08
 -1      1235-2.17339E-06 6.02525E-06-1.06675E-06 5.29738E-06-2.71269E-08-1.67821E-08
 -1      1236 1.08168E-06 1.23849E-06-6.57411E-07-1.14772E-05-7.24437E-08 3.62653E-08
 -1      1237-5.45812E-07 5.91861E-06-1.55677E-06-6.92523E-06 5.23577E-08-3.88477E-08
 -1      1238-1.06133E-06 2.27779E-06-4.30162E-07-9.29304E-06 8.20104E-08-3.30701E-08
 -1      1239-3.98382E-06 1.61548E-06 5.76310E-07-8.80464E-06 1.36593E-07-5.58785E-08
 -1      1240-8.10816E-06 1.25131E-05-1.19185E-06 7.42540E-06 7.44423E-08 3.55122E-08
 -1      1241 2.68717E-07 2.15499E-05-5.04571E-06-1.21731E-05 2.49091E-08-2.90651E-08
 -1      1242-3.71245E-06 3.90560E-06-1.51312E-07-5.66688E-06-1.44829E-07-6.81456E-08
 -3
    1PSTEP                         4           1           1          
  100CL  101 1.000000000        1242                     0    1           1
 -4  ERROR       1    1
 -5  STR(%)      1    1    0    0
 -1         1 2.28489E+01
 -1         2 2.85929E+01
 -1         3 2.03688E+01
 -1         4 2.12491E+01
 -1         5 1.42285E+01
 -1         6 1.62902E+01
 -1         7 2.07372E+01
 -1         8 2.05607E+01
 -1         9 1.76370E+01
 -1        10 2.13718E+01
 -1        11 1.94553E+01
 -1        12 2.04842E+01
 -1        13 3.24925E+01
 -1        14 1.69160E+01
 -1        15 1.81235E+01
 -1        16 3.01402E+01
 -1        17 1.38674E+01
 -1        18 1.35286E+01
 -1        19 1.13059E+01
 -1        20 1.81235E+01
 -1        21 1.02123E+01
 -1        22 1.02123E+01
 -1        23 9.68637E+00
 -1        24 3.24925E+01
 -1        25 3.24925E+01
 -1        26 1.05074E+01
 -1        27 5.43672E+00
 -1        28 9.18334E+00
 -1        29 1.94553E+01
 -1        30 1.76284E+01
 -1        31 1.76370E+01
 -1        32 2.02491E+01
 -1        33 2.02491E+01
 -1        34 2.07372E+01
 -1        35 2.05938E+01
 -1        36 2.98975E+01
 -1        37 3.42060E+01
 -1        38 3.42060E+01
 -1        39 2.62753E+01
 -1        40 2.62753E+01
 -1        41 2.21668E+01
 -1        42 2.69407E+01
 -1        43 2.76716E+01
 -1        44 3.27883E+01
 -1        45 3.15751E+01
 -1        46 1.82960E+01
 -1        47 1.14259E+01
 -1        48 3.18561E+01
 -1        49 3.18561E+01
 -1        50 1.02123E+01
 -1        51 7.84029E+00
 -1        52 1.69160E+01
 -1        53 1.62081E+01
 -1        54 1.27681E+01
 -1        55 6.06490E+00
 -1        56 9.26013E+00
 -1        57 2.05744E+01
 -1        58 1.43525E+01
 -1        59 2.13718E+01
 -1        60 2.55699E+01
 -1        61 1.83838E+01
 -1        62 2.05607E+01
 -1        63 1.87130E+01
 -1        64 3.11539E+01
 -1        65 3.22915E+01
 -1        66 3.22915E+01
 -1        67 2.62753E+01
 -1        68 2.48945E+01
 -1        69 2.69916E+01
 -1        70 2.77834E+01
 -1        71 3.34998E+01
 -1        72 1.84524E+01
 -1        73 1.58725E+01
 -1        74 3.16626E+01
 -1        75 3.34998E+01
 -1        76 2.32369E+01
 -1        77 2.05607E+01
 -1        78 2.13718E+01
 -1        79 2.05744E+01
 -1        80 2.91572E+01
 -1        81 3.18561E+01
 -1        82 9.28193E+00
 -1        83 2.94354E+01
 -1        84 7.91677E+00
 -1        85 1.02123E+01
 -1        86 1.61699E+01
 -1        87 2.31073E+01
 -1        88 6.95794E+00
 -1        89 9.95712E+00
 -1        90 1.01579E+01
 -1        91 2.05744E+01
 -1        92 1.82845E+01
 -1        93 2.88036E+01
 -1        94 2.88036E+01
 -1        95 2.88036E+01
 -1        96 1.90730E+01
 -1        97 2.07372E+01
 -1        98 1.71565E+01
 -1        99 2.98975E+01
 -1       100 3.42060E+01
 -1       101 2.30366E+01
 -1       102 2.48852E+01
 -1       103 2.73962E+01
 -1       104 3.04714E+01
 -1       105 2.28489E+01
 -1       106 1.38674E+01
 -1       107 1.82960E+01
 -1       108 8.58610E+00
 -1       109 1.84864E+01
 -1       110 5.98412E+00
 -1       111 9.95712E+00
 -1       112 7.27597E+00
 -1       113 2.62753E+01
 -1       114 8.94603E+00
 -1       115 1.01579E+01
 -1       116 2.69561E+01
 -1       117 1.48107E+01
 -1       118 1.06095E+01
 -1       119 1.29988E+01
 -1       120 1.24074E+01
 -1       121 7.41664E+00
 -1       122 1.14405E+01
 -1       123 1.02171E+01
 -1       124 1.49121E+01
 -1       125 6.89237E+00
 -1       126 7.24073E+00
 -1       127 5.71072E+00
 -1       128 7.71774E+00
 -1       129 7.43466E+00
 -1       130 9.21988E+00
 -1       131 8.58183E+00
 -1       132 8.74480E+00
 -1       133 4.89057E+00
 -1       134 8.74480E+00
 -1       135 8.15333E+00
 -1       136 8.74480E+00
 -1       137 1.07049E+01
 -1       138 9.12727E+00
 -1       139 2.01794E+01
 -1       140 7.67691E+00
 -1       141 8.68851E+00
 -1       142 2.72567E+01
 -1       143 8.71042E+00
 -1       144 8.18359E+00
 -1       145 9.95712E+00
 -1       146 2.05744E+01
 -1       147 1.76628E+01
 -1       148 1.85234E+01
 -1       149 2.88036E+01
 -1       150 1.90730E+01
 -1       151 2.05607E+01
 -1       152 1.51498E+01
 -1       153 2.05938E+01
 -1       154 3.11539E+01
 -1       155 3.22915E+01
 -1       156 2.91813E+01
 -1       157 1.98057E+01
 -1       158 2.69916E+01
 -1       159 2.84615E+01
 -1       160 1.35286E+01
 -1       161 1.84524E+01
 -1       162 2.55699E+01
 -1       163 1.22464E+01
 -1       164 2.48945E+01
 -1       165 8.63451E+00
 -1       166 6.05958E+00
 -1       167 6.27625E+00
 -1       168 8.39081E+00
 -1       169 9.19973E+00
 -1       170 8.78199E+00
 -1       171 1.82156E+01
 -1       172 1.48107E+01
 -1       173 9.88578E+00
 -1       174 1.32175E+01
 -1       175 1.39443E+01
 -1       176 6.05958E+00
 -1       177 7.74097E+00
 -1       178 8.12995E+00
 -1       179 6.39790E+00
 -1       180 1.22464E+01
 -1       181 1.41213E+01
 -1       182 8.74480E+00
 -1       183 4.89057E+00
 -1       184 7.51620E+00
 -1       185 9.98449E+00
 -1       186 6.04130E+00
 -1       187 7.85616E+00
 -1       188 8.12995E+00
 -1       189 3.34998E+01
 -1       190 2.77834E+01
 -1       191 2.07372E+01
 -1       192 3.42060E+01
 -1       193 2.58836E+01
 -1       194 2.05061E+01
 -1       195 3.24925E+01
 -1       196 2.94354E+01
 -1       197 3.18561E+01
 -1       198 1.14259E+01
 -1       199 1.36254E+01
 -1       200 1.09938E+01
 -1       201 7.41664E+00
 -1       202 9.41796E+00
 -1       203 1.14259E+01
 -1       204 1.58725E+01
 -1       205 6.39790E+00
 -1       206 6.39790E+00
 -1       207 1.41667E+01
 -1       208 8.63451E+00
 -1       209 3.15751E+01
 -1       210 1.91378E+01
 -1       211 9.11200E+00
 -1       212 3.16626E+01
 -1       213 3.34998E+01
 -1       214 1.32175E+01
 -1       215 1.41213E+01
 -1       216 9.98449E+00
 -1       217 8.74790E+00
 -1       218 9.07512E+00
 -1       219 7.32043E+00
 -1       220 9.21988E+00
 -1       221 1.41495E+01
 -1       222 1.25866E+01
 -1       223 1.47147E+01
 -1       224 1.81235E+01
 -1       225 1.41679E+01
 -1       226 1.02123E+01
 -1       227 9.94936E+00
 -1       228 2.10894E+01
 -1       229 3.24925E+01
 -1       230 3.24925E+01
 -1       231 2.15000E+01
 -1       232 7.97205E+00
 -1       233 7.31003E+00
 -1       234 1.43193E+01
 -1       235 1.94553E+01
 -1       236 1.85418E+01
 -1       237 1.76327E+01
 -1       238 1.76370E+01
 -1       239 1.89431E+01
 -1       240 2.02491E+01
 -1       241 2.04932E+01
 -1       242 2.07372E+01
 -1       243 2.06655E+01
 -1       244 2.52456E+01
 -1       245 3.20517E+01
 -1       246 3.42060E+01
 -1       247 2.42172E+01
 -1       248 2.02519E+01
 -1       249 2.62753E+01
 -1       250 2.42210E+01
 -1       251 2.45538E+01
 -1       252 2.73062E+01
 -1       253 2.40202E+01
 -1       254 2.65786E+01
 -1       255 3.21817E+01
 -1       256 2.72120E+01
 -1       257 1.60817E+01
 -1       258 2.05724E+01
 -1       259 1.24772E+01
 -1       260 2.16410E+01
 -1       261 3.09981E+01
 -1       262 3.09981E+01
 -1       263 2.10342E+01
 -1       264 9.02632E+00
 -1       265 1.23782E+01
 -1       266 1.69160E+01
 -1       267 1.65621E+01
 -1       268 1.44881E+01
 -1       269 9.41652E+00
 -1       270 7.66252E+00
 -1       271 1.49173E+01
 -1       272 2.05293E+01
 -1       273 1.74184E+01
 -1       274 1.78621E+01
 -1       275 2.13718E+01
 -1       276 2.34708E+01
 -1       277 2.19768E+01
 -1       278 1.94722E+01
 -1       279 2.05607E+01
 -1       280 1.96368E+01
 -1       281 2.49334E+01
 -1       282 3.17227E+01
 -1       283 3.22915E+01
 -1       284 2.42909E+01
 -1       285 2.12827E+01
 -1       286 2.55849E+01
 -1       287 2.59431E+01
 -1       288 2.73875E+01
 -1       289 2.45162E+01
 -1       290 2.73745E+01
 -1       291 3.10463E+01
 -1       292 1.59905E+01
 -1       293 2.35226E+01
 -1       294 1.47005E+01
 -1       295 1.48699E+01
 -1       296 3.01277E+01
 -1       297 2.72557E+01
 -1       298 2.73745E+01
 -1       299 2.69343E+01
 -1       300 1.97635E+01
 -1       301 1.87327E+01
 -1       302 2.05607E+01
 -1       303 2.06489E+01
 -1       304 2.13718E+01
 -1       305 1.95044E+01
 -1       306 2.05293E+01
 -1       307 2.00148E+01
 -1       308 2.30366E+01
 -1       309 3.08248E+01
 -1       310 3.09981E+01
 -1       311 2.49898E+01
 -1       312 1.02939E+01
 -1       313 1.15746E+01
 -1       314 2.37794E+01
 -1       315 2.03706E+01
 -1       316 1.93587E+01
 -1       317 2.37794E+01
 -1       318 9.06455E+00
 -1       319 1.30201E+01
 -1       320 1.86761E+01
 -1       321 1.02123E+01
 -1       322 1.02123E+01
 -1       323 9.06455E+00
 -1       324 1.29281E+01
 -1       325 1.31911E+01
 -1       326 1.31911E+01
 -1       327 2.43312E+01
 -1       328 3.24925E+01
 -1       329 1.68073E+01
 -1       330 2.77999E+01
 -1       331 6.19733E+00
 -1       332 8.73266E+00
 -1       333 1.50326E+01
 -1       334 9.57023E+00
 -1       335 7.69692E+00
 -1       336 8.45753E+00
 -1       337 1.48066E+01
 -1       338 9.67064E+00
 -1       339 1.00575E+01
 -1       340 2.00148E+01
 -1       341 2.00148E+01
 -1       342 1.53662E+01
 -1       343 1.79565E+01
 -1       344 1.88699E+01
 -1       345 1.94295E+01
 -1       346 2.32203E+01
 -1       347 2.32160E+01
 -1       348 2.35441E+01
 -1       349 2.32203E+01
 -1       350 2.32203E+01
 -1       351 2.88036E+01
 -1       352 2.45264E+01
 -1       353 2.45264E+01
 -1       354 2.45264E+01
 -1       355 2.88036E+01
 -1       356 1.99051E+01
 -1       357 1.96610E+01
 -1       358 2.39383E+01
 -1       359 2.07372E+01
 -1       360 2.07372E+01
 -1       361 1.99051E+01
 -1       362 1.88752E+01
 -1       363 1.89469E+01
 -1       364 1.89469E+01
 -1       365 3.20517E+01
 -1       366 2.98975E+01
 -1       367 3.42060E+01
 -1       368 3.42060E+01
 -1       369 3.20517E+01
 -1       370 3.02406E+01
 -1       371 2.26017E+01
 -1       372 2.46559E+01
 -1       373 2.59129E+01
 -1       374 2.35260E+01
 -1       375 2.39609E+01
 -1       376 2.75339E+01
 -1       377 2.71685E+01
 -1       378 2.61407E+01
 -1       379 3.02300E+01
 -1       380 3.10232E+01
 -1       381 3.16299E+01
 -1       382 2.28489E+01
 -1       383 2.72120E+01
 -1       384 2.66601E+01
 -1       385 1.38674E+01
 -1       386 1.60817E+01
 -1       387 1.82960E+01
 -1       388 2.05724E+01
 -1       389 2.77999E+01
 -1       390 3.02406E+01
 -1       391 1.96386E+01
 -1       392 1.34411E+01
 -1       393 1.34411E+01
 -1       394 1.12267E+01
 -1       395 2.41919E+01
 -1       396 1.95401E+01
 -1       397 2.90715E+01
 -1       398 2.05724E+01
 -1       399 1.15746E+01
 -1       400 2.41919E+01
 -1       401 1.77098E+01
 -1       402 7.63303E+00
 -1       403 6.95045E+00
 -1       404 1.00575E+01
 -1       405 9.95712E+00
 -1       406 8.61655E+00
 -1       407 7.11695E+00
 -1       408 8.61655E+00
 -1       409 2.62753E+01
 -1       410 3.02406E+01
 -1       411 7.95198E+00
 -1       412 1.60266E+01
 -1       413 1.25580E+01
 -1       414 8.11100E+00
 -1       415 1.53662E+01
 -1       416 1.01579E+01
 -1       417 1.00575E+01
 -1       418 2.78798E+01
 -1       419 2.26203E+01
 -1       420 1.77740E+01
 -1       421 1.69418E+01
 -1       422 1.38830E+01
 -1       423 1.56734E+01
 -1       424 1.27101E+01
 -1       425 2.89338E+01
 -1       426 2.46559E+01
 -1       427 2.62753E+01
 -1       428 1.89420E+01
 -1       429 1.80177E+01
 -1       430 1.53517E+01
 -1       431 1.76281E+01
 -1       432 2.51226E+01
 -1       433 8.34929E+00
 -1       434 1.06420E+01
 -1       435 6.70038E+00
 -1       436 2.14481E+01
 -1       437 1.57426E+01
 -1       438 9.57918E+00
 -1       439 8.09823E+00
 -1       440 1.71447E+01
 -1       441 1.94184E+01
 -1       442 1.81628E+01
 -1       443 1.19239E+01
 -1       444 1.85866E+01
 -1       445 1.42508E+01
 -1       446 1.53958E+01
 -1       447 2.05937E+01
 -1       448 2.45590E+01
 -1       449 1.03799E+01
 -1       450 7.73924E+00
 -1       451 7.15451E+00
 -1       452 1.22196E+01
 -1       453 8.72653E+00
 -1       454 6.61243E+00
 -1       455 7.32869E+00
 -1       456 8.09338E+00
 -1       457 2.08834E+01
 -1       458 2.30145E+01
 -1       459 2.88036E+01
 -1       460 2.78798E+01
 -1       461 1.01875E+01
 -1       462 1.89743E+01
 -1       463 2.24048E+01
 -1       464 1.20034E+01
 -1       465 9.05905E+00
 -1       466 7.14841E+00
 -1       467 1.39554E+01
 -1       468 9.57912E+00
 -1       469 1.03583E+01
 -1       470 1.00626E+01
 -1       471 9.02210E+00
 -1       472 1.11227E+01
 -1       473 1.11093E+01
 -1       474 1.38531E+01
 -1       475 1.78214E+01
 -1       476 1.45480E+01
 -1       477 1.77690E+01
 -1       478 9.39948E+00
 -1       479 9.36989E+00
 -1       480 1.16963E+01
 -1       481 7.25835E+00
 -1       482 9.91471E+00
 -1       483 8.32727E+00
 -1       484 9.35096E+00
 -1       485 8.01039E+00
 -1       486 7.99277E+00
 -1       487 5.89147E+00
 -1       488 6.73833E+00
 -1       489 5.30064E+00
 -1       490 9.35096E+00
 -1       491 8.74480E+00
 -1       492 9.45137E+00
 -1       493 6.71423E+00
 -1       494 8.68660E+00
 -1       495 7.79399E+00
 -1       496 8.66331E+00
 -1       497 8.00825E+00
 -1       498 8.46881E+00
 -1       499 8.08072E+00
 -1       500 7.93553E+00
 -1       501 8.36758E+00
 -1       502 6.93202E+00
 -1       503 8.74480E+00
 -1       504 8.08072E+00
 -1       505 8.44906E+00
 -1       506 8.74480E+00
 -1       507 8.44906E+00
 -1       508 6.52195E+00
 -1       509 6.81768E+00
 -1       510 7.81858E+00
 -1       511 1.21167E+01
 -1       512 1.10654E+01
 -1       513 1.02766E+01
 -1       514 2.04917E+01
 -1       515 9.91608E+00
 -1       516 3.18561E+01
 -1       517 2.60177E+01
 -1       518 1.51959E+01
 -1       519 8.94462E+00
 -1       520 7.75860E+00
 -1       521 1.39281E+01
 -1       522 8.26440E+00
 -1       523 1.28023E+01
 -1       524 8.18271E+00
 -1       525 2.20864E+01
 -1       526 2.20864E+01
 -1       527 2.17324E+01
 -1       528 1.79726E+01
 -1       529 2.00124E+01
 -1       530 1.07393E+01
 -1       531 7.38766E+00
 -1       532 7.12425E+00
 -1       533 8.72186E+00
 -1       534 8.44701E+00
 -1       535 9.60863E+00
 -1       536 1.52658E+01
 -1       537 9.07036E+00
 -1       538 2.05744E+01
 -1       539 2.05293E+01
 -1       540 1.52658E+01
 -1       541 1.90735E+01
 -1       542 1.60076E+01
 -1       543 1.91186E+01
 -1       544 1.64379E+01
 -1       545 1.99476E+01
 -1       546 1.80931E+01
 -1       547 2.34708E+01
 -1       548 2.71867E+01
 -1       549 2.35937E+01
 -1       550 1.87284E+01
 -1       551 1.98168E+01
 -1       552 2.39383E+01
 -1       553 2.05607E+01
 -1       554 2.05607E+01
 -1       555 1.98168E+01
 -1       556 1.78553E+01
 -1       557 1.69314E+01
 -1       558 1.78553E+01
 -1       559 1.96534E+01
 -1       560 2.58738E+01
 -1       561 1.78718E+01
 -1       562 3.11539E+01
 -1       563 3.17227E+01
 -1       564 2.58738E+01
 -1       565 3.22915E+01
 -1       566 3.22915E+01
 -1       567 3.17227E+01
 -1       568 3.07364E+01
 -1       569 2.27357E+01
 -1       570 2.77283E+01
 -1       571 3.07364E+01
 -1       572 2.23501E+01
 -1       573 2.33987E+01
 -1       574 2.69916E+01
 -1       575 2.73875E+01
 -1       576 2.33987E+01
 -1       577 3.06416E+01
 -1       578 3.09807E+01
 -1       579 2.85272E+01
 -1       580 1.59905E+01
 -1       581 1.35286E+01
 -1       582 2.35226E+01
 -1       583 1.84524E+01
 -1       584 2.34708E+01
 -1       585 2.55699E+01
 -1       586 2.04196E+01
 -1       587 1.53494E+01
 -1       588 2.03540E+01
 -1       589 3.02457E+01
 -1       590 2.55849E+01
 -1       591 2.48945E+01
 -1       592 2.23501E+01
 -1       593 1.35435E+01
 -1       594 1.10815E+01
 -1       595 1.35435E+01
 -1       596 1.21167E+01
 -1       597 2.04917E+01
 -1       598 1.46533E+01
 -1       599 7.59343E+00
 -1       600 1.31195E+01
 -1       601 8.38223E+00
 -1       602 1.79835E+01
 -1       603 6.97658E+00
 -1       604 7.48238E+00
 -1       605 8.69947E+00
 -1       606 8.28720E+00
 -1       607 9.17397E+00
 -1       608 9.57842E+00
 -1       609 1.48871E+01
 -1       610 8.79527E+00
 -1       611 1.46782E+01
 -1       612 1.32224E+01
 -1       613 8.99086E+00
 -1       614 1.79392E+01
 -1       615 1.83695E+01
 -1       616 1.34988E+01
 -1       617 2.71867E+01
 -1       618 1.69418E+01
 -1       619 1.76857E+01
 -1       620 1.52232E+01
 -1       621 1.25178E+01
 -1       622 1.23482E+01
 -1       623 1.41837E+01
 -1       624 1.69057E+01
 -1       625 1.15516E+01
 -1       626 1.72691E+01
 -1       627 2.25491E+01
 -1       628 1.35809E+01
 -1       629 9.79407E+00
 -1       630 8.38223E+00
 -1       631 6.05958E+00
 -1       632 7.49334E+00
 -1       633 6.86825E+00
 -1       634 6.16792E+00
 -1       635 9.99369E+00
 -1       636 1.30967E+01
 -1       637 8.42019E+00
 -1       638 8.15677E+00
 -1       639 8.18774E+00
 -1       640 2.20466E+01
 -1       641 2.35096E+01
 -1       642 1.86443E+01
 -1       643 1.94194E+01
 -1       644 2.80242E+01
 -1       645 9.96323E+00
 -1       646 6.22874E+00
 -1       647 7.51621E+00
 -1       648 2.85930E+01
 -1       649 2.70379E+01
 -1       650 1.60261E+01
 -1       651 1.96190E+01
 -1       652 1.22464E+01
 -1       653 1.96190E+01
 -1       654 1.95079E+01
 -1       655 1.69635E+01
 -1       656 7.20310E+00
 -1       657 8.26038E+00
 -1       658 1.40328E+01
 -1       659 1.31838E+01
 -1       660 2.77266E+01
 -1       661 8.56781E+00
 -1       662 8.97226E+00
 -1       663 9.99369E+00
 -1       664 1.36694E+01
 -1       665 6.31577E+00
 -1       666 6.76254E+00
 -1       667 8.35797E+00
 -1       668 8.14910E+00
 -1       669 8.13050E+00
 -1       670 1.65132E+01
 -1       671 9.93514E+00
 -1       672 1.16010E+01
 -1       673 1.00813E+01
 -1       674 9.14385E+00
 -1       675 6.89114E+00
 -1       676 1.20529E+01
 -1       677 1.30359E+01
 -1       678 1.13334E+01
 -1       679 8.87097E+00
 -1       680 8.31908E+00
 -1       681 2.36635E+01
 -1       682 8.43738E+00
 -1       683 8.01290E+00
 -1       684 7.09477E+00
 -1       685 7.20310E+00
 -1       686 5.64423E+00
 -1       687 5.46593E+00
 -1       688 7.68618E+00
 -1       689 8.92033E+00
 -1       690 8.12995E+00
 -1       691 8.43738E+00
 -1       692 7.09477E+00
 -1       693 7.26393E+00
 -1       694 7.57135E+00
 -1       695 6.81768E+00
 -1       696 7.43753E+00
 -1       697 8.75035E+00
 -1       698 6.20339E+00
 -1       699 1.71625E+01
 -1       700 1.70843E+01
 -1       701 2.50575E+01
 -1       702 2.49793E+01
 -1       703 2.37676E+01
 -1       704 3.34998E+01
 -1       705 3.31441E+01
 -1       706 3.16189E+01
 -1       707 3.25812E+01
 -1       708 3.31441E+01
 -1       709 3.25375E+01
 -1       710 3.34998E+01
 -1       711 3.25812E+01
 -1       712 3.34998E+01
 -1       713 2.47561E+01
 -1       714 3.06416E+01
 -1       715 3.05857E+01
 -1       716 2.47561E+01
 -1       717 2.55849E+01
 -1       718 2.62753E+01
 -1       719 2.45792E+01
 -1       720 2.35307E+01
 -1       721 2.77275E+01
 -1       722 3.06416E+01
 -1       723 2.77834E+01
 -1       724 2.73621E+01
 -1       725 2.69662E+01
 -1       726 2.62753E+01
 -1       727 2.73875E+01
 -1       728 2.05607E+01
 -1       729 2.06489E+01
 -1       730 2.07372E+01
 -1       731 2.07372E+01
 -1       732 2.06489E+01
 -1       733 2.77642E+01
 -1       734 2.42172E+01
 -1       735 2.87214E+01
 -1       736 3.32488E+01
 -1       737 3.42060E+01
 -1       738 1.97251E+01
 -1       739 2.58738E+01
 -1       740 1.96534E+01
 -1       741 3.32488E+01
 -1       742 3.26799E+01
 -1       743 3.32488E+01
 -1       744 2.06655E+01
 -1       745 3.42060E+01
 -1       746 3.05257E+01
 -1       747 2.34708E+01
 -1       748 2.08105E+01
 -1       749 1.94722E+01
 -1       750 2.04049E+01
 -1       751 2.29095E+01
 -1       752 1.93165E+01
 -1       753 2.21337E+01
 -1       754 2.57267E+01
 -1       755 2.30664E+01
 -1       756 2.30664E+01
 -1       757 1.74634E+01
 -1       758 1.91014E+01
 -1       759 2.13718E+01
 -1       760 1.95044E+01
 -1       761 1.59904E+01
 -1       762 1.95044E+01
 -1       763 2.09389E+01
 -1       764 1.74293E+01
 -1       765 1.90673E+01
 -1       766 1.90715E+01
 -1       767 2.26826E+01
 -1       768 3.08248E+01
 -1       769 3.24925E+01
 -1       770 3.24925E+01
 -1       771 2.43503E+01
 -1       772 2.05744E+01
 -1       773 2.00148E+01
 -1       774 2.26303E+01
 -1       775 5.75081E+00
 -1       776 9.10243E+00
 -1       777 9.22174E+00
 -1       778 7.62412E+00
 -1       779 2.00148E+01
 -1       780 2.15000E+01
 -1       781 1.16378E+01
 -1       782 1.43577E+01
 -1       783 3.18561E+01
 -1       784 2.49898E+01
 -1       785 3.08248E+01
 -1       786 3.06457E+01
 -1       787 2.37794E+01
 -1       788 1.98239E+01
 -1       789 3.06457E+01
 -1       790 1.98239E+01
 -1       791 9.02632E+00
 -1       792 1.02123E+01
 -1       793 1.33012E+01
 -1       794 8.76334E+00
 -1       795 2.30366E+01
 -1       796 1.02123E+01
 -1       797 2.47043E+01
 -1       798 1.36492E+01
 -1       799 3.18561E+01
 -1       800 2.49898E+01
 -1       801 3.18561E+01
 -1       802 3.18561E+01
 -1       803 2.15810E+01
 -1       804 2.16410E+01
 -1       805 1.26466E+01
 -1       806 1.13659E+01
 -1       807 2.16410E+01
 -1       808 1.36492E+01
 -1       809 1.14259E+01
 -1       810 1.84715E+01
 -1       811 2.98746E+01
 -1       812 2.82069E+01
 -1       813 9.98207E+00
 -1       814 1.09195E+01
 -1       815 1.26226E+01
 -1       816 1.35600E+01
 -1       817 2.17133E+01
 -1       818 1.85789E+01
 -1       819 1.35600E+01
 -1       820 1.41213E+01
 -1       821 1.85789E+01
 -1       822 2.59384E+01
 -1       823 2.59384E+01
 -1       824 2.63343E+01
 -1       825 2.73875E+01
 -1       826 1.02823E+01
 -1       827 1.02823E+01
 -1       828 1.05295E+01
 -1       829 6.39790E+00
 -1       830 6.64513E+00
 -1       831 6.64513E+00
 -1       832 8.70958E+00
 -1       833 8.66022E+00
 -1       834 7.64541E+00
 -1       835 3.05257E+01
 -1       836 1.14346E+01
 -1       837 1.14487E+01
 -1       838 8.03416E+00
 -1       839 1.41354E+01
 -1       840 1.07209E+01
 -1       841 1.07350E+01
 -1       842 9.60219E+00
 -1       843 9.06891E+00
 -1       844 2.71867E+01
 -1       845 2.50877E+01
 -1       846 1.10370E+01
 -1       847 1.11093E+01
 -1       848 1.15982E+01
 -1       849 1.16706E+01
 -1       850 9.14750E+00
 -1       851 9.18744E+00
 -1       852 1.24292E+01
 -1       853 1.02823E+01
 -1       854 6.39790E+00
 -1       855 6.39790E+00
 -1       856 1.14006E+01
 -1       857 7.51621E+00
 -1       858 7.51621E+00
 -1       859 2.71867E+01
 -1       860 2.71867E+01
 -1       861 2.30380E+01
 -1       862 2.46548E+01
 -1       863 2.46548E+01
 -1       864 8.43738E+00
 -1       865 8.43738E+00
 -1       866 8.74480E+00
 -1       867 8.74480E+00
 -1       868 8.83707E+00
 -1       869 8.13050E+00
 -1       870 8.04902E+00
 -1       871 1.45167E+01
 -1       872 2.14212E+01
 -1       873 2.23454E+01
 -1       874 2.09863E+01
 -1       875 6.73811E+00
 -1       876 6.90727E+00
 -1       877 8.41730E+00
 -1       878 6.22874E+00
 -1       879 7.73877E+00
 -1       880 7.90793E+00
 -1       881 1.12231E+01
 -1       882 7.61114E+00
 -1       883 8.81727E+00
 -1       884 1.40328E+01
 -1       885 1.13461E+01
 -1       886 1.14346E+01
 -1       887 3.26799E+01
 -1       888 2.52456E+01
 -1       889 2.52456E+01
 -1       890 9.67883E+00
 -1       891 8.97226E+00
 -1       892 6.90727E+00
 -1       893 1.01326E+01
 -1       894 7.83476E+00
 -1       895 1.22535E+01
 -1       896 8.61031E+00
 -1       897 1.22293E+01
 -1       898 1.50196E+01
 -1       899 1.13764E+01
 -1       900 6.90727E+00
 -1       901 2.08834E+01
 -1       902 1.48107E+01
 -1       903 1.16963E+01
 -1       904 1.71625E+01
 -1       905 1.22535E+01
 -1       906 1.18068E+01
 -1       907 1.63038E+01
 -1       908 1.38531E+01
 -1       909 1.20051E+01
 -1       910 1.42354E+01
 -1       911 9.60219E+00
 -1       912 9.60219E+00
 -1       913 9.21988E+00
 -1       914 2.20115E+01
 -1       915 1.52892E+01
 -1       916 2.32670E+01
 -1       917 1.64023E+01
 -1       918 8.74480E+00
 -1       919 3.05257E+01
 -1       920 2.62753E+01
 -1       921 2.55849E+01
 -1       922 7.41664E+00
 -1       923 6.90727E+00
 -1       924 7.83418E+00
 -1       925 6.51142E+00
 -1       926 9.86304E+00
 -1       927 9.33377E+00
 -1       928 8.01101E+00
 -1       929 1.13687E+01
 -1       930 1.07597E+01
 -1       931 1.24923E+01
 -1       932 1.30164E+01
 -1       933 1.47489E+01
 -1       934 1.41400E+01
 -1       935 1.95079E+01
 -1       936 2.39656E+01
 -1       937 1.99033E+01
 -1       938 9.95712E+00
 -1       939 9.95712E+00
 -1       940 9.07036E+00
 -1       941 9.07036E+00
 -1       942 3.19856E+01
 -1       943 3.34998E+01
 -1       944 3.25375E+01
 -1       945 3.19856E+01
 -1       946 3.10232E+01
 -1       947 3.25375E+01
 -1       948 3.18561E+01
 -1       949 2.04917E+01
 -1       950 3.31441E+01
 -1       951 8.18774E+00
 -1       952 7.17262E+00
 -1       953 6.72585E+00
 -1       954 1.07916E+01
 -1       955 2.26002E+01
 -1       956 1.82371E+01
 -1       957 2.26440E+01
 -1       958 2.72120E+01
 -1       959 3.16189E+01
 -1       960 2.05744E+01
 -1       961 2.27397E+01
 -1       962 2.36635E+01
 -1       963 1.84040E+01
 -1       964 7.76344E+00
 -1       965 1.94718E+01
 -1       966 1.56231E+01
 -1       967 1.56921E+01
 -1       968 1.18435E+01
 -1       969 9.17397E+00
 -1       970 2.51820E+01
 -1       971 2.77999E+01
 -1       972 1.79377E+01
 -1       973 2.98746E+01
 -1       974 3.15751E+01
 -1       975 2.72120E+01
 -1       976 1.91186E+01
 -1       977 3.16626E+01
 -1       978 3.25812E+01
 -1       979 3.01277E+01
 -1       980 1.34332E+01
 -1       981 1.26452E+01
 -1       982 1.36492E+01
 -1       983 1.02059E+01
 -1       984 1.12099E+01
 -1       985 1.04219E+01
 -1       986 1.19234E+01
 -1       987 1.41249E+01
 -1       988 1.06792E+01
 -1       989 1.06792E+01
 -1       990 1.56921E+01
 -1       991 8.68966E+00
 -1       992 6.76254E+00
 -1       993 2.49793E+01
 -1       994 1.59607E+01
 -1       995 5.30064E+00
 -1       996 2.78798E+01
 -1       997 2.88036E+01
 -1       998 2.88036E+01
 -1       999 8.68191E+00
 -1      1000 8.21900E+00
 -1      1001 6.73811E+00
 -1      1002 6.70038E+00
 -1      1003 6.02185E+00
 -1      1004 6.22874E+00
 -1      1005 6.19101E+00
 -1      1006 2.77283E+01
 -1      1007 2.77283E+01
 -1      1008 9.96323E+00
 -1      1009 1.38476E+01
 -1      1010 1.82371E+01
 -1      1011 9.20524E+00
 -1      1012 1.01379E+01
 -1      1013 9.42127E+00
 -1      1014 8.34929E+00
 -1      1015 1.03539E+01
 -1      1016 8.63451E+00
 -1      1017 2.30647E+01
 -1      1018 2.95503E+01
 -1      1019 2.73960E+01
 -1      1020 6.81768E+00
 -1      1021 6.76254E+00
 -1      1022 8.68966E+00
 -1      1023 4.89057E+00
 -1      1024 2.54002E+01
 -1      1025 2.03873E+01
 -1      1026 2.19545E+01
 -1      1027 2.35937E+01
 -1      1028 2.73436E+01
 -1      1029 2.50877E+01
 -1      1030 2.26517E+01
 -1      1031 1.73717E+01
 -1      1032 2.20235E+01
 -1      1033 1.63816E+01
 -1      1034 2.53565E+01
 -1      1035 2.09934E+01
 -1      1036 1.79348E+01
 -1      1037 1.79435E+01
 -1      1038 1.89469E+01
 -1      1039 1.61532E+01
 -1      1040 2.73436E+01
 -1      1041 6.83052E+00
 -1      1042 1.30817E+01
 -1      1043 1.79737E+01
 -1      1044 1.63185E+01
 -1      1045 1.94295E+01
 -1      1046 8.27015E+00
 -1      1047 8.19777E+00
 -1      1048 1.57726E+01
 -1      1049 1.02762E+01
 -1      1050 1.06420E+01
 -1      1051 2.26440E+01
 -1      1052 3.16189E+01
 -1      1053 2.62091E+01
 -1      1054 6.87952E+00
 -1      1055 7.63059E+00
 -1      1056 1.16706E+01
 -1      1057 1.70843E+01
 -1      1058 8.82823E+00
 -1      1059 1.59088E+01
 -1      1060 2.05607E+01
 -1      1061 1.40481E+01
 -1      1062 7.79684E+00
 -1      1063 2.50575E+01
 -1      1064 2.50575E+01
 -1      1065 7.57135E+00
 -1      1066 6.81932E+00
 -1      1067 3.00621E+01
 -1      1068 2.37997E+01
 -1      1069 2.63188E+01
 -1      1070 3.09807E+01
 -1      1071 3.25812E+01
 -1      1072 3.02457E+01
 -1      1073 1.95147E+01
 -1      1074 6.75849E+00
 -1      1075 8.24429E+00
 -1      1076 7.45882E+00
 -1      1077 8.94462E+00
 -1      1078 7.09731E+00
 -1      1079 6.52195E+00
 -1      1080 3.24925E+01
 -1      1081 7.72978E+00
 -1      1082 7.83339E+00
 -1      1083 3.04480E+01
 -1      1084 2.48046E+01
 -1      1085 7.70296E+00
 -1      1086 1.71625E+01
 -1      1087 2.37676E+01
 -1      1088 2.25859E+01
 -1      1089 3.34998E+01
 -1      1090 3.06416E+01
 -1      1091 3.06416E+01
 -1      1092 1.40469E+01
 -1      1093 2.20094E+01
 -1      1094 1.16427E+01
 -1      1095 1.24306E+01
 -1      1096 9.49956E+00
 -1      1097 1.53958E+01
 -1      1098 1.39400E+01
 -1      1099 1.42164E+01
 -1      1100 7.47543E+00
 -1      1101 9.60863E+00
 -1      1102 9.70904E+00
 -1      1103 2.37676E+01
 -1      1104 8.42649E+00
 -1      1105 1.40595E+01
 -1      1106 1.24306E+01
 -1      1107 1.48699E+01
 -1      1108 2.26376E+01
 -1      1109 9.06455E+00
 -1      1110 1.86761E+01
 -1      1111 1.29034E+01
 -1      1112 1.93953E+01
 -1      1113 6.22874E+00
 -1      1114 1.02690E+01
 -1      1115 1.09827E+01
 -1      1116 1.36835E+01
 -1      1117 7.68534E+00
 -1      1118 7.68534E+00
 -1      1119 1.98168E+01
 -1      1120 2.06489E+01
 -1      1121 2.71939E+01
 -1      1122 1.50196E+01
 -1      1123 1.62313E+01
 -1      1124 1.40170E+01
 -1      1125 3.34998E+01
 -1      1126 2.55849E+01
 -1      1127 1.70843E+01
 -1      1128 2.39383E+01
 -1      1129 2.07372E+01
 -1      1130 1.13334E+01
 -1      1131 1.23482E+01
 -1      1132 2.23094E+01
 -1      1133 9.46997E+00
 -1      1134 8.65246E+00
 -1      1135 1.14733E+01
 -1      1136 8.43738E+00
 -1      1137 7.57665E+00
 -1      1138 5.87601E+00
 -1      1139 7.41136E+00
 -1      1140 1.10654E+01
 -1      1141 8.74274E+00
 -1      1142 1.00614E+01
 -1      1143 7.73877E+00
 -1      1144 1.00575E+01
 -1      1145 1.53662E+01
 -1      1146 1.63095E+01
 -1      1147 1.47005E+01
 -1      1148 1.00575E+01
 -1      1149 8.41487E+00
 -1      1150 1.91186E+01
 -1      1151 2.05744E+01
 -1      1152 2.05744E+01
 -1      1153 2.75898E+01
 -1      1154 1.98168E+01
 -1      1155 1.90730E+01
 -1      1156 2.46821E+01
 -1      1157 2.73436E+01
 -1      1158 1.53662E+01
 -1      1159 3.26799E+01
 -1      1160 1.09827E+01
 -1      1161 9.36620E+00
 -1      1162 1.16010E+01
 -1      1163 1.20529E+01
 -1      1164 8.44906E+00
 -1      1165 9.02632E+00
 -1      1166 3.32488E+01
 -1      1167 3.42060E+01
 -1      1168 1.12099E+01
 -1      1169 1.02123E+01
 -1      1170 7.26393E+00
 -1      1171 2.88036E+01
 -1      1172 7.99320E+00
 -1      1173 1.14259E+01
 -1      1174 1.02970E+01
 -1      1175 1.19135E+01
 -1      1176 1.19135E+01
 -1      1177 1.16010E+01
 -1      1178 1.32175E+01
 -1      1179 1.03539E+01
 -1      1180 1.53662E+01
 -1      1181 1.58519E+01
 -1      1182 1.14006E+01
 -1      1183 3.32488E+01
 -1      1184 1.81013E+01
 -1      1185 1.35809E+01
 -1      1186 6.77611E+00
 -1      1187 8.56781E+00
 -1      1188 8.56781E+00
 -1      1189 2.39656E+01
 -1      1190 7.57135E+00
 -1      1191 3.16936E+01
 -1      1192 2.06489E+01
 -1      1193 2.06489E+01
 -1      1194 1.79435E+01
 -1      1195 2.30145E+01
 -1      1196 1.69418E+01
 -1      1197 1.98168E+01
 -1      1198 3.05857E+01
 -1      1199 1.76857E+01
 -1      1200 3.16936E+01
 -1      1201 3.02406E+01
 -1      1202 1.88752E+01
 -1      1203 1.51870E+01
 -1      1204 1.95401E+01
 -1      1205 1.69057E+01
 -1      1206 1.33987E+01
 -1      1207 2.05938E+01
 -1      1208 3.32488E+01
 -1      1209 9.52981E+00
 -1      1210 3.25812E+01
 -1      1211 1.02477E+01
 -1      1212 1.53115E+01
 -1      1213 1.14259E+01
 -1      1214 2.16410E+01
 -1      1215 1.17923E+01
 -1      1216 8.70501E+00
 -1      1217 1.02970E+01
 -1      1218 2.05744E+01
 -1      1219 2.05690E+01
 -1      1220 1.02766E+01
 -1      1221 8.38223E+00
 -1      1222 1.58026E+01
 -1      1223 2.60177E+01
 -1      1224 2.48074E+01
 -1      1225 1.14733E+01
 -1      1226 1.24772E+01
 -1      1227 3.06457E+01
 -1      1228 9.14750E+00
 -1      1229 3.06457E+01
 -1      1230 1.41837E+01
 -1      1231 1.28797E+01
 -1      1232 9.57842E+00
 -1      1233 1.63179E+01
 -1      1234 1.15982E+01
 -1      1235 8.91151E+00
 -1      1236 6.65016E+00
 -1      1237 2.04306E+01
 -1      1238 2.48074E+01
 -1      1239 2.94354E+01
 -1      1240 9.98449E+00
 -1      1241 1.58725E+01
 -1      1242 3.06457E+01
 -3
 9999
